[Molden Format]
[Title]
 Molden file created by orca_2mkl for BaseName=orca

[Atoms] AU
C    1   6         -1.2604473313         0.0000000000         0.0000000000 
C    2   6          1.2604473313         0.0000000000         0.0000000000 
H    3   1         -2.3202057472         1.7476187287         0.0000000000 
H    4   1         -2.3202057472        -1.7476187287         0.0000000000 
H    5   1          2.3202057472         1.7476187287         0.0000000000 
H    6   1          2.3202057472        -1.7476187287         0.0000000000 
C    7   6         -1.2604473313         0.0000000000        6.6140414650998E+00 
C    8   6          1.2604473313         0.0000000000        6.6140414650998E+00 
H    9   1         -2.3202057472         1.7476187287        6.6140414650998E+00 
H   10   1         -2.3202057472        -1.7476187287        6.6140414650998E+00 
H   11   1          2.3202057472         1.7476187287        6.6140414650998E+00 
H   12   1          2.3202057472        -1.7476187287        6.6140414650998E+00 
[GTO]
  1 0
s   5 1.0 
     1238.4016938000         0.8208956682
      186.2900499200         1.4766449896
       42.2511763460         2.1526124058
       11.6765579320         2.1081722461
        3.5930506482         0.8290999933
s   1 1.0 
        0.4024514736         0.3601183351
s   1 1.0 
        0.1309018267         0.1551027052
p   3 1.0 
        9.4680970621         1.3467645142
        2.0103545142         1.0678070931
        0.5477100471         0.5108735714
p   1 1.0 
        0.1526861379         0.1360471976
d   1 1.0 
        0.8000000000         1.9292013661

  2 0
s   5 1.0 
     1238.4016938000         0.8208956682
      186.2900499200         1.4766449896
       42.2511763460         2.1526124058
       11.6765579320         2.1081722461
        3.5930506482         0.8290999933
s   1 1.0 
        0.4024514736         0.3601183351
s   1 1.0 
        0.1309018267         0.1551027052
p   3 1.0 
        9.4680970621         1.3467645142
        2.0103545142         1.0678070931
        0.5477100471         0.5108735714
p   1 1.0 
        0.1526861379         0.1360471976
d   1 1.0 
        0.8000000000         1.9292013661

  3 0
s   3 1.0 
       13.0107010000         0.1634903809
        1.9622572000         0.2773515510
        0.4445379600         0.3157501452
s   1 1.0 
        0.1219496200         0.1470772262
p   1 1.0 
        0.8000000000         1.0784563492

  4 0
s   3 1.0 
       13.0107010000         0.1634903809
        1.9622572000         0.2773515510
        0.4445379600         0.3157501452
s   1 1.0 
        0.1219496200         0.1470772262
p   1 1.0 
        0.8000000000         1.0784563492

  5 0
s   3 1.0 
       13.0107010000         0.1634903809
        1.9622572000         0.2773515510
        0.4445379600         0.3157501452
s   1 1.0 
        0.1219496200         0.1470772262
p   1 1.0 
        0.8000000000         1.0784563492

  6 0
s   3 1.0 
       13.0107010000         0.1634903809
        1.9622572000         0.2773515510
        0.4445379600         0.3157501452
s   1 1.0 
        0.1219496200         0.1470772262
p   1 1.0 
        0.8000000000         1.0784563492

  7 0
s   5 1.0 
     1238.4016938000         0.8208956682
      186.2900499200         1.4766449896
       42.2511763460         2.1526124058
       11.6765579320         2.1081722461
        3.5930506482         0.8290999933
s   1 1.0 
        0.4024514736         0.3601183351
s   1 1.0 
        0.1309018267         0.1551027052
p   3 1.0 
        9.4680970621         1.3467645142
        2.0103545142         1.0678070931
        0.5477100471         0.5108735714
p   1 1.0 
        0.1526861379         0.1360471976
d   1 1.0 
        0.8000000000         1.9292013661

  8 0
s   5 1.0 
     1238.4016938000         0.8208956682
      186.2900499200         1.4766449896
       42.2511763460         2.1526124058
       11.6765579320         2.1081722461
        3.5930506482         0.8290999933
s   1 1.0 
        0.4024514736         0.3601183351
s   1 1.0 
        0.1309018267         0.1551027052
p   3 1.0 
        9.4680970621         1.3467645142
        2.0103545142         1.0678070931
        0.5477100471         0.5108735714
p   1 1.0 
        0.1526861379         0.1360471976
d   1 1.0 
        0.8000000000         1.9292013661

  9 0
s   3 1.0 
       13.0107010000         0.1634903809
        1.9622572000         0.2773515510
        0.4445379600         0.3157501452
s   1 1.0 
        0.1219496200         0.1470772262
p   1 1.0 
        0.8000000000         1.0784563492

 10 0
s   3 1.0 
       13.0107010000         0.1634903809
        1.9622572000         0.2773515510
        0.4445379600         0.3157501452
s   1 1.0 
        0.1219496200         0.1470772262
p   1 1.0 
        0.8000000000         1.0784563492

 11 0
s   3 1.0 
       13.0107010000         0.1634903809
        1.9622572000         0.2773515510
        0.4445379600         0.3157501452
s   1 1.0 
        0.1219496200         0.1470772262
p   1 1.0 
        0.8000000000         1.0784563492

 12 0
s   3 1.0 
       13.0107010000         0.1634903809
        1.9622572000         0.2773515510
        0.4445379600         0.3157501452
s   1 1.0 
        0.1219496200         0.1470772262
p   1 1.0 
        0.8000000000         1.0784563492

[5D]
[7F]
[9G]
[MO]
 Sym=     1a
 Ene= -1.02600258391809E+01
 Spin= Alpha
 Occup= 2.000000
  1      -0.699087386217
  2      -0.030499432650
  3       0.015978151900
  4       0.002512340567
  5      -0.000000000288
  6       0.000000010051
  7      -0.000540802028
  8      -0.000000000206
  9      -0.000000003324
 10       0.001140919053
 11      -0.000000000301
 12       0.000000000027
 13       0.000568824608
 14       0.000000000068
 15      -0.699088694878
 16      -0.030499503501
 17       0.015978213686
 18      -0.002512337769
 19      -0.000000000676
 20       0.000000010061
 21       0.000540796893
 22      -0.000000000066
 23      -0.000000003184
 24       0.001140924474
 25       0.000000000272
 26       0.000000000022
 27       0.000568823881
 28       0.000000000069
 29       0.002917889315
 30      -0.004708057220
 31       0.000519764547
 32      -0.001635932148
 33      -0.000000000300
 34       0.002917889735
 35      -0.004708057248
 36       0.000519764648
 37       0.001635932178
 38      -0.000000000332
 39       0.002917895398
 40      -0.004708068499
 41      -0.000519767194
 42      -0.001635936101
 43      -0.000000000305
 44       0.002917896501
 45      -0.004708068241
 46      -0.000519767439
 47       0.001635936102
 48      -0.000000000271
 49      -0.000065595481
 50      -0.000002861755
 51       0.000001499205
 52       0.000000235740
 53       0.000000000000
 54      -0.000000000001
 55      -0.000000050749
 56       0.000000000000
 57       0.000000000000
 58       0.000000107050
 59       0.000000000000
 60      -0.000000000000
 61       0.000000053375
 62       0.000000000000
 63      -0.000065597831
 64      -0.000002861882
 65       0.000001499317
 66      -0.000000235735
 67      -0.000000000000
 68      -0.000000000001
 69       0.000000050739
 70      -0.000000000000
 71       0.000000000000
 72       0.000000107060
 73      -0.000000000000
 74      -0.000000000000
 75       0.000000053373
 76       0.000000000000
 77       0.000000273785
 78      -0.000000441756
 79       0.000000048768
 80      -0.000000153499
 81       0.000000000000
 82       0.000000273785
 83      -0.000000441756
 84       0.000000048768
 85       0.000000153499
 86       0.000000000000
 87       0.000000273797
 88      -0.000000441776
 89      -0.000000048773
 90      -0.000000153506
 91       0.000000000000
 92       0.000000273797
 93      -0.000000441776
 94      -0.000000048773
 95       0.000000153506
 96       0.000000000000
 Sym=     1a
 Ene= -1.02600258390903E+01
 Spin= Alpha
 Occup= 2.000000
  1       0.000065596594
  2       0.000002861815
  3      -0.000001499258
  4      -0.000000235737
  5       0.000000000000
  6      -0.000000000001
  7       0.000000050744
  8       0.000000000000
  9       0.000000000000
 10      -0.000000107054
 11       0.000000000000
 12      -0.000000000000
 13      -0.000000053374
 14      -0.000000000000
 15       0.000065596718
 16       0.000002861822
 17      -0.000001499264
 18       0.000000235737
 19       0.000000000000
 20      -0.000000000001
 21      -0.000000050744
 22       0.000000000000
 23       0.000000000000
 24      -0.000000107055
 25      -0.000000000000
 26      -0.000000000000
 27      -0.000000053374
 28      -0.000000000000
 29      -0.000000273791
 30       0.000000441765
 31      -0.000000048770
 32       0.000000153502
 33       0.000000000000
 34      -0.000000273791
 35       0.000000441765
 36      -0.000000048770
 37      -0.000000153502
 38       0.000000000000
 39      -0.000000273791
 40       0.000000441766
 41       0.000000048771
 42       0.000000153503
 43       0.000000000000
 44      -0.000000273791
 45       0.000000441766
 46       0.000000048771
 47      -0.000000153503
 48       0.000000000000
 49      -0.699075525473
 50      -0.030498793244
 51       0.015977588557
 52       0.002512365699
 53       0.000000000149
 54      -0.000000010566
 55      -0.000540851106
 56       0.000000000222
 57       0.000000002960
 58       0.001140870035
 59       0.000000000179
 60      -0.000000000028
 61       0.000568833555
 62       0.000000000019
 63      -0.699100556347
 64      -0.030500141111
 65       0.015978776562
 66      -0.002512311548
 67      -0.000000000422
 68      -0.000000010747
 69       0.000540747256
 70      -0.000000000279
 71       0.000000002758
 72       0.001140973213
 73      -0.000000000287
 74      -0.000000000116
 75       0.000568815131
 76       0.000000000105
 77       0.002917830294
 78      -0.004707956793
 79       0.000519740032
 80      -0.001635896526
 81       0.000000000309
 82       0.002917830398
 83      -0.004707956913
 84       0.000519740027
 85       0.001635896773
 86       0.000000000310
 87       0.002917956136
 88      -0.004708168965
 89      -0.000519792412
 90      -0.001635972462
 91       0.000000000076
 92       0.002917957189
 93      -0.004708168775
 94      -0.000519792673
 95       0.001635972181
 96       0.000000000299
 Sym=     1a
 Ene= -1.02593363624411E+01
 Spin= Alpha
 Occup= 2.000000
  1       0.000000807676
  2       0.000000043533
  3      -0.000000038351
  4       0.000000001721
  5      -0.000000000000
  6      -0.000000000000
  7      -0.000000003368
  8      -0.000000000000
  9       0.000000000000
 10      -0.000000003336
 11      -0.000000000000
 12       0.000000000000
 13       0.000000000600
 14      -0.000000000000
 15      -0.000000807675
 16      -0.000000043533
 17       0.000000038351
 18       0.000000001721
 19       0.000000000000
 20       0.000000000000
 21      -0.000000003368
 22      -0.000000000000
 23      -0.000000000000
 24       0.000000003336
 25      -0.000000000000
 26      -0.000000000000
 27      -0.000000000600
 28      -0.000000000000
 29      -0.000000004038
 30       0.000000006851
 31      -0.000000001694
 32       0.000000002440
 33       0.000000000000
 34      -0.000000004038
 35       0.000000006851
 36      -0.000000001694
 37      -0.000000002440
 38       0.000000000000
 39       0.000000004038
 40      -0.000000006851
 41      -0.000000001694
 42      -0.000000002440
 43       0.000000000000
 44       0.000000004038
 45      -0.000000006851
 46      -0.000000001694
 47       0.000000002440
 48       0.000000000000
 49      -0.698408007808
 50      -0.037643247742
 51       0.033162752447
 52      -0.001488518162
 53       0.000000000704
 54      -0.000000011373
 55       0.002912001817
 56       0.000000000292
 57       0.000000006973
 58       0.002884660635
 59      -0.000000000844
 60      -0.000000000002
 61      -0.000518783534
 62      -0.000000000104
 63       0.698382952578
 64       0.037642155272
 65      -0.033162180210
 66      -0.001488607334
 67      -0.000000000353
 68       0.000000011208
 69       0.002912021311
 70      -0.000000000317
 71      -0.000000006955
 72      -0.002884619957
 73      -0.000000000904
 74      -0.000000000142
 75       0.000518804096
 76       0.000000000086
 77       0.003491746324
 78      -0.005924331102
 79       0.001464911257
 80      -0.002109949888
 81      -0.000000000095
 82       0.003491744967
 83      -0.005924331633
 84       0.001464911312
 85       0.002109949718
 86      -0.000000000158
 87      -0.003491641115
 88       0.005924162680
 89       0.001464892818
 90       0.002109891009
 91      -0.000000000103
 92      -0.003491640296
 93       0.005924162794
 94       0.001464892547
 95      -0.002109891346
 96       0.000000000184
 Sym=     1a
 Ene= -1.02593363543857E+01
 Spin= Alpha
 Occup= 2.000000
  1       0.698396135756
  2       0.037642729165
  3      -0.033162481790
  4       0.001488561071
  5      -0.000000000263
  6      -0.000000011498
  7      -0.002912011938
  8      -0.000000000067
  9       0.000000006707
 10      -0.002884641147
 11      -0.000000000963
 12       0.000000000048
 13       0.000518793076
 14       0.000000000034
 15      -0.698394825918
 16      -0.037642671560
 17       0.033162451969
 18       0.001488565549
 19       0.000000000586
 20       0.000000011158
 21      -0.002912013056
 22       0.000000000057
 23      -0.000000006964
 24       0.002884639048
 25      -0.000000000900
 26      -0.000000000019
 27      -0.000518794336
 28      -0.000000000045
 29      -0.003491697149
 30       0.005924251173
 31      -0.001464902821
 32       0.002109922410
 33      -0.000000000124
 34      -0.003491696532
 35       0.005924251380
 36      -0.001464902717
 37      -0.002109922321
 38      -0.000000000154
 39       0.003491692061
 40      -0.005924242293
 41      -0.001464901975
 42      -0.002109919340
 43       0.000000000139
 44       0.003491690975
 45      -0.005924242631
 46      -0.001464901718
 47       0.002109919321
 48       0.000000000113
 49       0.000000807689
 50       0.000000043533
 51      -0.000000038352
 52       0.000000001721
 53      -0.000000000000
 54       0.000000000000
 55      -0.000000003368
 56      -0.000000000000
 57      -0.000000000000
 58      -0.000000003336
 59       0.000000000000
 60       0.000000000000
 61       0.000000000600
 62       0.000000000000
 63      -0.000000807662
 64      -0.000000043532
 65       0.000000038351
 66       0.000000001722
 67       0.000000000000
 68      -0.000000000000
 69      -0.000000003368
 70       0.000000000000
 71       0.000000000000
 72       0.000000003336
 73       0.000000000000
 74       0.000000000000
 75      -0.000000000600
 76      -0.000000000000
 77      -0.000000004038
 78       0.000000006851
 79      -0.000000001694
 80       0.000000002440
 81       0.000000000000
 82      -0.000000004038
 83       0.000000006851
 84      -0.000000001694
 85      -0.000000002440
 86       0.000000000000
 87       0.000000004038
 88      -0.000000006851
 89      -0.000000001694
 90      -0.000000002440
 91       0.000000000000
 92       0.000000004038
 93      -0.000000006851
 94      -0.000000001694
 95       0.000000002440
 96      -0.000000000000
 Sym=     1a
 Ene= -8.32750881742096E-01
 Spin= Alpha
 Occup= 2.000000
  1       0.000000000001
  2      -0.000000000002
  3      -0.000000000001
  4      -0.000000000000
  5       0.000000000000
  6      -0.000000000000
  7      -0.000000000000
  8      -0.000000000000
  9      -0.000000000000
 10       0.000000000000
 11      -0.000000000000
 12      -0.000000000000
 13      -0.000000000000
 14      -0.000000000000
 15       0.000000000001
 16      -0.000000000002
 17      -0.000000000001
 18       0.000000000000
 19       0.000000000000
 20       0.000000000000
 21       0.000000000000
 22       0.000000000000
 23       0.000000000000
 24       0.000000000000
 25      -0.000000000000
 26      -0.000000000000
 27      -0.000000000000
 28       0.000000000000
 29      -0.000000000000
 30      -0.000000000000
 31      -0.000000000000
 32       0.000000000000
 33       0.000000000000
 34      -0.000000000000
 35      -0.000000000000
 36      -0.000000000000
 37      -0.000000000000
 38       0.000000000000
 39      -0.000000000000
 40      -0.000000000000
 41       0.000000000000
 42       0.000000000000
 43       0.000000000000
 44      -0.000000000000
 45      -0.000000000000
 46       0.000000000000
 47      -0.000000000000
 48      -0.000000000000
 49       0.202349798089
 50      -0.383218407300
 51      -0.108515812379
 52      -0.111245882110
 53       0.000000016250
 54      -0.000000767097
 55      -0.021265171763
 56       0.000000017015
 57      -0.000001246470
 58       0.007748800486
 59      -0.000000039433
 60      -0.000000002346
 61      -0.010813084529
 62      -0.000000012665
 63       0.202349814396
 64      -0.383218432588
 65      -0.108515787598
 66       0.111245870771
 67       0.000000005145
 68      -0.000000765453
 69       0.021265169251
 70      -0.000000004751
 71      -0.000001234359
 72       0.007748794787
 73       0.000000041968
 74       0.000000000252
 75      -0.010813088917
 76      -0.000000001008
 77      -0.108211795524
 78      -0.017314810171
 79      -0.009465192967
 80       0.012750449712
 81      -0.000000043415
 82      -0.108211773085
 83      -0.017314779860
 84      -0.009465176515
 85      -0.012750415009
 86      -0.000000057612
 87      -0.108211812751
 88      -0.017314807714
 89       0.009465194141
 90       0.012750446220
 91      -0.000000062243
 92      -0.108211820203
 93      -0.017314817096
 94       0.009465194186
 95      -0.012750446801
 96      -0.000000062524
 Sym=     1a
 Ene= -8.32750868402414E-01
 Spin= Alpha
 Occup= 2.000000
  1       0.202349803327
  2      -0.383218394091
  3      -0.108515798471
  4      -0.111245886493
  5       0.000000004424
  6       0.000000768165
  7      -0.021265172995
  8      -0.000000004868
  9       0.000001242023
 10       0.007748791829
 11       0.000000041714
 12      -0.000000000167
 13      -0.010813090285
 14       0.000000000861
 15       0.202349806083
 16      -0.383218408140
 17      -0.108515799052
 18       0.111245883710
 19       0.000000006111
 20       0.000000767506
 21       0.021265173465
 22       0.000000006329
 23       0.000001239222
 24       0.007748793318
 25      -0.000000042333
 26      -0.000000000040
 27      -0.010813090534
 28      -0.000000000407
 29      -0.108211801598
 30      -0.017314804768
 31      -0.009465194230
 32       0.012750447459
 33       0.000000060226
 34      -0.108211810989
 35      -0.017314812557
 36      -0.009465197371
 37      -0.012750449964
 38       0.000000059475
 39      -0.108211802193
 40      -0.017314808080
 41       0.009465192919
 42       0.012750445075
 43       0.000000062421
 44      -0.108211806253
 45      -0.017314810309
 46       0.009465192882
 47      -0.012750447379
 48       0.000000062340
 49      -0.000000000001
 50       0.000000000002
 51       0.000000000001
 52       0.000000000000
 53       0.000000000000
 54      -0.000000000000
 55       0.000000000000
 56       0.000000000000
 57      -0.000000000000
 58      -0.000000000000
 59      -0.000000000000
 60      -0.000000000000
 61       0.000000000000
 62      -0.000000000000
 63      -0.000000000001
 64       0.000000000002
 65       0.000000000001
 66      -0.000000000000
 67      -0.000000000000
 68      -0.000000000000
 69      -0.000000000000
 70      -0.000000000000
 71      -0.000000000000
 72      -0.000000000000
 73      -0.000000000000
 74       0.000000000000
 75       0.000000000000
 76      -0.000000000000
 77       0.000000000000
 78       0.000000000000
 79       0.000000000000
 80      -0.000000000000
 81       0.000000000000
 82       0.000000000000
 83       0.000000000000
 84       0.000000000000
 85       0.000000000000
 86      -0.000000000000
 87       0.000000000000
 88       0.000000000000
 89      -0.000000000000
 90      -0.000000000000
 91      -0.000000000000
 92       0.000000000000
 93       0.000000000000
 94      -0.000000000000
 95       0.000000000000
 96       0.000000000000
 Sym=     1a
 Ene= -6.47452738814134E-01
 Spin= Alpha
 Occup= 2.000000
  1       0.155974981777
  2      -0.314505307975
  3      -0.078556732571
  4       0.165455449223
  5      -0.000000009867
  6       0.000000608018
  7       0.066232644529
  8       0.000000002755
  9       0.000002522273
 10       0.001462832609
 11      -0.000000091218
 12       0.000000000280
 13       0.009980416064
 14       0.000000001605
 15      -0.155974978498
 16       0.314505293972
 17       0.078556732651
 18       0.165455445056
 19       0.000000007116
 20      -0.000000610771
 21       0.066232641815
 22       0.000000001269
 23      -0.000002525233
 24      -0.001462833902
 25      -0.000000091706
 26      -0.000000000025
 27      -0.009980413334
 28       0.000000001830
 29      -0.190517699685
 30      -0.049944045160
 31      -0.005318230123
 32       0.015666247277
 33       0.000000117834
 34      -0.190517687334
 35      -0.049944036116
 36      -0.005318225464
 37      -0.015666251324
 38       0.000000119318
 39       0.190517699091
 40       0.049944042379
 41      -0.005318232821
 42      -0.015666251444
 43      -0.000000114495
 44       0.190517694137
 45       0.049944036597
 46      -0.005318232106
 47       0.015666252218
 48      -0.000000114441
 49       0.000000000366
 50      -0.000000000737
 51      -0.000000000186
 52       0.000000000388
 53       0.000000000000
 54      -0.000000000000
 55       0.000000000155
 56       0.000000000000
 57      -0.000000000000
 58       0.000000000003
 59       0.000000000000
 60       0.000000000000
 61       0.000000000023
 62       0.000000000000
 63      -0.000000000366
 64       0.000000000737
 65       0.000000000186
 66       0.000000000388
 67       0.000000000000
 68       0.000000000000
 69       0.000000000155
 70      -0.000000000000
 71       0.000000000000
 72      -0.000000000003
 73       0.000000000000
 74      -0.000000000000
 75      -0.000000000023
 76       0.000000000000
 77      -0.000000000447
 78      -0.000000000117
 79      -0.000000000012
 80       0.000000000037
 81      -0.000000000000
 82      -0.000000000447
 83      -0.000000000117
 84      -0.000000000012
 85      -0.000000000037
 86      -0.000000000000
 87       0.000000000447
 88       0.000000000117
 89      -0.000000000012
 90      -0.000000000037
 91       0.000000000000
 92       0.000000000447
 93       0.000000000117
 94      -0.000000000012
 95       0.000000000037
 96       0.000000000000
 Sym=     1a
 Ene= -6.47452723895793E-01
 Spin= Alpha
 Occup= 2.000000
  1      -0.000000000366
  2       0.000000000737
  3       0.000000000186
  4      -0.000000000388
  5      -0.000000000000
  6      -0.000000000000
  7      -0.000000000155
  8      -0.000000000000
  9      -0.000000000000
 10      -0.000000000003
 11       0.000000000000
 12       0.000000000000
 13      -0.000000000023
 14       0.000000000000
 15       0.000000000366
 16      -0.000000000737
 17      -0.000000000186
 18      -0.000000000388
 19      -0.000000000000
 20       0.000000000000
 21      -0.000000000155
 22       0.000000000000
 23       0.000000000000
 24       0.000000000003
 25       0.000000000000
 26       0.000000000000
 27       0.000000000023
 28      -0.000000000000
 29       0.000000000447
 30       0.000000000117
 31       0.000000000012
 32      -0.000000000037
 33      -0.000000000000
 34       0.000000000447
 35       0.000000000117
 36       0.000000000012
 37       0.000000000037
 38      -0.000000000000
 39      -0.000000000447
 40      -0.000000000117
 41       0.000000000012
 42       0.000000000037
 43       0.000000000000
 44      -0.000000000447
 45      -0.000000000117
 46       0.000000000012
 47      -0.000000000037
 48       0.000000000000
 49       0.155974985712
 50      -0.314505257563
 51      -0.078556725264
 52       0.165455408770
 53      -0.000000038387
 54      -0.000000608897
 55       0.066232618812
 56      -0.000000018839
 57      -0.000002513995
 58       0.001462814462
 59       0.000000087552
 60       0.000000003238
 61       0.009980402947
 62       0.000000026279
 63      -0.155974967124
 64       0.314505271393
 65       0.078556734420
 66       0.165455475070
 67       0.000000004265
 68       0.000000610983
 69       0.066232647162
 70      -0.000000001339
 71       0.000002520575
 72      -0.001462828759
 73       0.000000091039
 74       0.000000000075
 75      -0.009980414912
 76       0.000000003055
 77      -0.190517706042
 78      -0.049944043226
 79      -0.005318235533
 80       0.015666249952
 81      -0.000000146471
 82      -0.190517715014
 83      -0.049944092788
 84      -0.005318264184
 85      -0.015666327274
 86      -0.000000124598
 87       0.190517699246
 88       0.049944051742
 89      -0.005318232519
 90      -0.015666250301
 91       0.000000114980
 92       0.190517683506
 93       0.049944042758
 94      -0.005318229921
 95       0.015666250749
 96       0.000000114542
 Sym=     1a
 Ene= -5.39650662701432E-01
 Spin= Alpha
 Occup= 2.000000
  1       0.000000000000
  2       0.000000000000
  3      -0.000000000000
  4      -0.000000000000
  5      -0.000000123368
  6      -0.000000000000
  7      -0.000000000000
  8      -0.000000041534
  9      -0.000000000000
 10      -0.000000000000
 11       0.000000000000
 12       0.000000000000
 13       0.000000000000
 14      -0.000000000029
 15       0.000000000000
 16       0.000000000000
 17      -0.000000000000
 18       0.000000000000
 19      -0.000000123368
 20       0.000000000000
 21      -0.000000000000
 22      -0.000000041534
 23       0.000000000000
 24      -0.000000000000
 25      -0.000000000000
 26       0.000000000000
 27      -0.000000000000
 28       0.000000000029
 29      -0.000000075764
 30      -0.000000025122
 31      -0.000000003289
 32       0.000000001981
 33       0.000000000000
 34       0.000000075764
 35       0.000000025122
 36       0.000000003289
 37       0.000000001981
 38      -0.000000000000
 39      -0.000000075764
 40      -0.000000025122
 41       0.000000003289
 42       0.000000001981
 43       0.000000000000
 44       0.000000075764
 45       0.000000025122
 46      -0.000000003289
 47       0.000000001981
 48      -0.000000000000
 49      -0.000000003083
 50       0.000000011762
 51       0.000000031307
 52      -0.000000011186
 53       0.327225730628
 54      -0.000000000698
 55      -0.000000003598
 56       0.110167235475
 57      -0.000000004504
 58      -0.000000006380
 59       0.000000000827
 60       0.000000217651
 61      -0.000000004896
 62       0.000075851050
 63      -0.000000000977
 64      -0.000000002652
 65      -0.000000010229
 66       0.000000008551
 67       0.327225741560
 68      -0.000000000145
 69       0.000000004727
 70       0.110167278232
 71       0.000000002306
 72       0.000000000020
 73      -0.000000000365
 74       0.000000222004
 75       0.000000000238
 76      -0.000075847677
 77       0.200959077484
 78       0.066633351533
 79       0.008725135794
 80      -0.005254306491
 81       0.000000280158
 82      -0.200959093518
 83      -0.066633365182
 84      -0.008725150780
 85      -0.005254326205
 86      -0.000000264197
 87       0.200959080994
 88       0.066633343810
 89      -0.008725134881
 90      -0.005254316770
 91       0.000000256670
 92      -0.200959072062
 93      -0.066633337078
 94       0.008725133956
 95      -0.005254314401
 96      -0.000000256939
 Sym=     1a
 Ene= -5.39650662231016E-01
 Spin= Alpha
 Occup= 2.000000
  1       0.000000001918
  2       0.000000008942
  3      -0.000000012628
  4      -0.000000007835
  5      -0.327225737976
  6      -0.000000000221
  7      -0.000000006063
  8      -0.110167267892
  9      -0.000000001543
 10      -0.000000000570
 11       0.000000000269
 12       0.000000221907
 13       0.000000001296
 14      -0.000075845050
 15       0.000000004376
 16      -0.000000002693
 17      -0.000000000431
 18       0.000000009197
 19      -0.327225743457
 20       0.000000000355
 21       0.000000002349
 22      -0.110167252321
 23       0.000000000839
 24      -0.000000000290
 25      -0.000000000094
 26       0.000000221592
 27      -0.000000003630
 28       0.000075846276
 29      -0.200959075192
 30      -0.066633342129
 31      -0.008725132203
 32       0.005254314174
 33       0.000000257808
 34       0.200959071833
 35       0.066633343438
 36       0.008725136393
 37       0.005254308851
 38      -0.000000254376
 39      -0.200959082082
 40      -0.066633352884
 41       0.008725134607
 42       0.005254316389
 43       0.000000256764
 44       0.200959084365
 45       0.066633347598
 46      -0.008725134855
 47       0.005254310684
 48      -0.000000256870
 49       0.000000000000
 50      -0.000000000000
 51      -0.000000000000
 52       0.000000000000
 53      -0.000000123368
 54       0.000000000000
 55       0.000000000000
 56      -0.000000041534
 57       0.000000000000
 58       0.000000000000
 59      -0.000000000000
 60      -0.000000000000
 61       0.000000000000
 62      -0.000000000029
 63       0.000000000000
 64       0.000000000000
 65       0.000000000000
 66      -0.000000000000
 67      -0.000000123368
 68      -0.000000000000
 69      -0.000000000000
 70      -0.000000041534
 71      -0.000000000000
 72       0.000000000000
 73       0.000000000000
 74      -0.000000000000
 75      -0.000000000000
 76       0.000000000029
 77      -0.000000075764
 78      -0.000000025122
 79      -0.000000003289
 80       0.000000001981
 81      -0.000000000000
 82       0.000000075764
 83       0.000000025122
 84       0.000000003289
 85       0.000000001981
 86       0.000000000000
 87      -0.000000075764
 88      -0.000000025122
 89       0.000000003289
 90       0.000000001981
 91      -0.000000000000
 92       0.000000075764
 93       0.000000025122
 94      -0.000000003289
 95       0.000000001981
 96       0.000000000000
 Sym=     1a
 Ene= -4.85808950679254E-01
 Spin= Alpha
 Occup= 2.000000
  1       0.000000000189
  2      -0.000000000443
  3       0.000000000084
  4      -0.000000005096
  5      -0.000000000000
  6      -0.000000000000
  7      -0.000000001632
  8      -0.000000000000
  9      -0.000000000000
 10      -0.000000000023
 11       0.000000000000
 12      -0.000000000000
 13      -0.000000000178
 14      -0.000000000000
 15       0.000000000189
 16      -0.000000000443
 17       0.000000000084
 18       0.000000005096
 19      -0.000000000000
 20      -0.000000000000
 21       0.000000001632
 22       0.000000000000
 23      -0.000000000000
 24      -0.000000000023
 25      -0.000000000000
 26      -0.000000000000
 27      -0.000000000178
 28       0.000000000000
 29       0.000000001997
 30       0.000000000826
 31      -0.000000000058
 32      -0.000000000112
 33      -0.000000000000
 34       0.000000001997
 35       0.000000000826
 36      -0.000000000058
 37       0.000000000112
 38      -0.000000000000
 39       0.000000001997
 40       0.000000000826
 41       0.000000000058
 42      -0.000000000112
 43      -0.000000000000
 44       0.000000001997
 45       0.000000000826
 46       0.000000000058
 47       0.000000000112
 48      -0.000000000000
 49      -0.015479822186
 50       0.036195524584
 51      -0.006835042470
 52       0.417066268825
 53       0.000000040016
 54      -0.000000417282
 55       0.133616673648
 56       0.000000047833
 57      -0.000000901841
 58       0.001852778936
 59       0.000000258153
 60      -0.000000002961
 61       0.014543362444
 62      -0.000000027714
 63      -0.015479841211
 64       0.036195598299
 65      -0.006834961413
 66      -0.417066245100
 67       0.000000008963
 68      -0.000000418125
 69      -0.133616649138
 70      -0.000000013154
 71      -0.000000883690
 72       0.001852761342
 73      -0.000000254120
 74       0.000000000067
 75       0.014543346520
 76      -0.000000002646
 77      -0.163437549284
 78      -0.067598141207
 79       0.004745308862
 80       0.009174612229
 81      -0.000000154132
 82      -0.163437505556
 83      -0.067598069517
 84       0.004745346493
 85      -0.009174534383
 86      -0.000000175331
 87      -0.163437537644
 88      -0.067598134352
 89      -0.004745304882
 90       0.009174609405
 91      -0.000000186935
 92      -0.163437546793
 93      -0.067598146633
 94      -0.004745305083
 95      -0.009174611868
 96      -0.000000186811
 Sym=     1a
 Ene= -4.85808947788831E-01
 Spin= Alpha
 Occup= 2.000000
  1      -0.015479835909
  2       0.036195595046
  3      -0.006834982443
  4       0.417066240325
  5       0.000000006125
  6       0.000000417676
  7       0.133616652246
  8      -0.000000015386
  9       0.000000891810
 10       0.001852758801
 11      -0.000000254596
 12      -0.000000000234
 13       0.014543346176
 14      -0.000000000254
 15      -0.015479833137
 16       0.036195584240
 17      -0.006834986606
 18      -0.417066243873
 19      -0.000000010531
 20       0.000000416411
 21      -0.133616655773
 22       0.000000009808
 23       0.000000887180
 24       0.001852759489
 25       0.000000253495
 26       0.000000000030
 27       0.014543345787
 28      -0.000000000707
 29      -0.163437541196
 30      -0.067598126035
 31       0.004745304362
 32       0.009174614117
 33       0.000000182972
 34      -0.163437557137
 35      -0.067598147549
 36       0.004745299471
 37      -0.009174615007
 38       0.000000181704
 39      -0.163437559302
 40      -0.067598143791
 41      -0.004745304962
 42       0.009174609990
 43       0.000000186474
 44      -0.163437527071
 45      -0.067598129597
 46      -0.004745307057
 47      -0.009174611497
 48       0.000000186521
 49      -0.000000000189
 50       0.000000000443
 51      -0.000000000084
 52       0.000000005096
 53      -0.000000000000
 54      -0.000000000000
 55       0.000000001632
 56      -0.000000000000
 57      -0.000000000000
 58       0.000000000023
 59       0.000000000000
 60      -0.000000000000
 61       0.000000000178
 62      -0.000000000000
 63      -0.000000000189
 64       0.000000000443
 65      -0.000000000084
 66      -0.000000005096
 67      -0.000000000000
 68      -0.000000000000
 69      -0.000000001632
 70       0.000000000000
 71      -0.000000000000
 72       0.000000000023
 73      -0.000000000000
 74       0.000000000000
 75       0.000000000178
 76       0.000000000000
 77      -0.000000001997
 78      -0.000000000826
 79       0.000000000058
 80       0.000000000112
 81      -0.000000000000
 82      -0.000000001997
 83      -0.000000000826
 84       0.000000000058
 85      -0.000000000112
 86      -0.000000000000
 87      -0.000000001997
 88      -0.000000000826
 89      -0.000000000058
 90       0.000000000112
 91      -0.000000000000
 92      -0.000000001997
 93      -0.000000000826
 94      -0.000000000058
 95      -0.000000000112
 96      -0.000000000000
 Sym=     1a
 Ene= -4.20097156205402E-01
 Spin= Alpha
 Occup= 2.000000
  1      -0.000000000000
  2      -0.000000000000
  3       0.000000000000
  4       0.000000000000
  5       0.000000003129
  6       0.000000000000
  7       0.000000000000
  8       0.000000000577
  9      -0.000000000000
 10      -0.000000000000
 11      -0.000000000000
 12      -0.000000000000
 13      -0.000000000000
 14      -0.000000000264
 15      -0.000000000000
 16      -0.000000000000
 17      -0.000000000000
 18      -0.000000000000
 19      -0.000000003129
 20       0.000000000000
 21       0.000000000000
 22      -0.000000000577
 23       0.000000000000
 24      -0.000000000000
 25      -0.000000000000
 26       0.000000000000
 27       0.000000000000
 28      -0.000000000264
 29       0.000000002681
 30       0.000000001641
 31       0.000000000079
 32      -0.000000000047
 33      -0.000000000000
 34      -0.000000002681
 35      -0.000000001641
 36      -0.000000000079
 37      -0.000000000047
 38       0.000000000000
 39      -0.000000002681
 40      -0.000000001641
 41       0.000000000079
 42       0.000000000047
 43       0.000000000000
 44       0.000000002681
 45       0.000000001641
 46      -0.000000000079
 47       0.000000000047
 48      -0.000000000000
 49       0.000000003966
 50       0.000000000014
 51      -0.000000002981
 52       0.000000010594
 53       0.310551551908
 54      -0.000000006522
 55       0.000000026310
 56       0.061801145729
 57       0.000000001395
 58       0.000000004205
 59      -0.000000001405
 60       0.000000177326
 61       0.000000004448
 62      -0.026201185161
 63       0.000000000378
 64      -0.000000009059
 65      -0.000000022099
 66       0.000000001780
 67      -0.310551538385
 68      -0.000000005832
 69       0.000000023912
 70      -0.061801144567
 71      -0.000000006823
 72       0.000000002959
 73      -0.000000000250
 74      -0.000000172056
 75      -0.000000005067
 76      -0.026201183063
 77       0.265446288089
 78       0.157422243650
 79       0.007767896959
 80      -0.004684401906
 81       0.000000291120
 82      -0.265446314211
 83      -0.157422210075
 84      -0.007767892499
 85      -0.004684372557
 86      -0.000000310517
 87      -0.265446289405
 88      -0.157422236369
 89       0.007767900490
 90       0.004684391936
 91      -0.000000320119
 92       0.265446306595
 93       0.157422231442
 94      -0.007767902438
 95       0.004684395698
 96       0.000000319835
 Sym=     1a
 Ene= -4.20097152255398E-01
 Spin= Alpha
 Occup= 2.000000
  1      -0.000000002268
  2      -0.000000008894
  3       0.000000033743
  4       0.000000004598
  5      -0.310551553863
  6      -0.000000001373
  7       0.000000000692
  8      -0.061801163708
  9       0.000000001168
 10      -0.000000000713
 11      -0.000000000168
 12       0.000000171534
 13      -0.000000003566
 14       0.026201183987
 15       0.000000001486
 16       0.000000004178
 17      -0.000000021649
 18      -0.000000019102
 19       0.310551544640
 20      -0.000000002039
 21      -0.000000007523
 22       0.061801163137
 23      -0.000000002271
 24      -0.000000004390
 25       0.000000000339
 26      -0.000000171647
 27       0.000000005958
 28       0.026201184568
 29      -0.265446293643
 30      -0.157422236744
 31      -0.007767901014
 32       0.004684394847
 33       0.000000318692
 34       0.265446290179
 35       0.157422219452
 36       0.007767896042
 37       0.004684388941
 38      -0.000000322915
 39       0.265446280105
 40       0.157422230560
 41      -0.007767899705
 42      -0.004684391253
 43      -0.000000320052
 44      -0.265446295780
 45      -0.157422227568
 46       0.007767898431
 47      -0.004684392248
 48       0.000000320005
 49       0.000000000000
 50      -0.000000000000
 51      -0.000000000000
 52      -0.000000000000
 53       0.000000003129
 54      -0.000000000000
 55      -0.000000000000
 56       0.000000000577
 57      -0.000000000000
 58      -0.000000000000
 59      -0.000000000000
 60       0.000000000000
 61      -0.000000000000
 62      -0.000000000264
 63      -0.000000000000
 64       0.000000000000
 65       0.000000000000
 66      -0.000000000000
 67      -0.000000003129
 68      -0.000000000000
 69      -0.000000000000
 70      -0.000000000577
 71      -0.000000000000
 72      -0.000000000000
 73       0.000000000000
 74      -0.000000000000
 75      -0.000000000000
 76      -0.000000000264
 77       0.000000002681
 78       0.000000001641
 79       0.000000000079
 80      -0.000000000047
 81       0.000000000000
 82      -0.000000002681
 83      -0.000000001641
 84      -0.000000000079
 85      -0.000000000047
 86      -0.000000000000
 87      -0.000000002681
 88      -0.000000001641
 89       0.000000000079
 90       0.000000000047
 91      -0.000000000000
 92       0.000000002681
 93       0.000000001641
 94      -0.000000000079
 95       0.000000000047
 96       0.000000000000
 Sym=     1a
 Ene= -3.35136272225304E-01
 Spin= Alpha
 Occup= 2.000000
  1       0.000000000000
  2      -0.000000000000
  3      -0.000000000000
  4       0.000000000000
  5       0.000000000000
  6       0.000000000000
  7       0.000000000000
  8       0.000000000000
  9       0.000000000000
 10       0.000000000000
 11       0.000000000000
 12       0.000000000000
 13       0.000000000000
 14      -0.000000000000
 15      -0.000000000000
 16       0.000000000000
 17      -0.000000000000
 18      -0.000000000000
 19      -0.000000000000
 20       0.000000000000
 21       0.000000000000
 22      -0.000000000000
 23       0.000000000000
 24       0.000000000000
 25      -0.000000000000
 26       0.000000000000
 27       0.000000000000
 28      -0.000000000000
 29       0.000000000000
 30       0.000000000000
 31       0.000000000000
 32      -0.000000000000
 33       0.000000000000
 34      -0.000000000000
 35      -0.000000000000
 36       0.000000000000
 37       0.000000000000
 38       0.000000000000
 39      -0.000000000000
 40      -0.000000000000
 41      -0.000000000000
 42      -0.000000000000
 43       0.000000000000
 44       0.000000000000
 45       0.000000000000
 46      -0.000000000000
 47       0.000000000000
 48       0.000000000000
 49      -0.000001150559
 50       0.000005356975
 51      -0.000005739594
 52      -0.000000212648
 53      -0.000000014577
 54      -0.409287275685
 55      -0.000000042611
 56      -0.000000021222
 57      -0.275803418158
 58      -0.000000412466
 59      -0.020273832256
 60       0.000000003383
 61      -0.000000041151
 62       0.000000008402
 63      -0.000001150409
 64       0.000005357633
 65      -0.000005731415
 66       0.000000213774
 67       0.000000006336
 68      -0.409287284855
 69       0.000000047099
 70       0.000000014211
 71      -0.275803448783
 72      -0.000000414310
 73       0.020273827617
 74      -0.000000000212
 75      -0.000000042690
 76       0.000000001559
 77       0.000001946670
 78       0.000001054922
 79       0.000000040937
 80      -0.000000052794
 81      -0.011776600545
 82       0.000001938738
 83       0.000001035435
 84       0.000000027863
 85       0.000000031085
 86      -0.011776572679
 87       0.000001940686
 88       0.000001038289
 89      -0.000000032186
 90      -0.000000037006
 91      -0.011776558659
 92       0.000001939437
 93       0.000001041553
 94      -0.000000032829
 95       0.000000038011
 96      -0.011776558559
 Sym=     1a
 Ene= -3.35136268649770E-01
 Spin= Alpha
 Occup= 2.000000
  1      -0.000001150839
  2       0.000005352386
  3      -0.000005742953
  4      -0.000000208066
  5       0.000000001995
  6       0.409287281122
  7      -0.000000049461
  8       0.000000003793
  9       0.275803434981
 10      -0.000000414014
 11       0.020273830037
 12       0.000000000007
 13      -0.000000040813
 14      -0.000000001516
 15      -0.000001150593
 16       0.000005346847
 17      -0.000005716922
 18       0.000000211518
 19       0.000000001400
 20       0.409287280735
 21       0.000000039152
 22      -0.000000000959
 23       0.275803440878
 24      -0.000000414753
 25      -0.020273828574
 26      -0.000000000015
 27      -0.000000044192
 28       0.000000000039
 29       0.000001942921
 30       0.000001037903
 31       0.000000034607
 32      -0.000000037145
 33       0.011776565994
 34       0.000001947796
 35       0.000001047080
 36       0.000000041643
 37       0.000000040351
 38       0.011776566332
 39       0.000001947403
 40       0.000001044153
 41      -0.000000032607
 42      -0.000000038800
 43       0.011776558684
 44       0.000001945655
 45       0.000001040699
 46      -0.000000032732
 47       0.000000038488
 48       0.011776558652
 49      -0.000000000000
 50       0.000000000000
 51       0.000000000000
 52       0.000000000000
 53      -0.000000000000
 54       0.000000000000
 55       0.000000000000
 56      -0.000000000000
 57       0.000000000000
 58      -0.000000000000
 59       0.000000000000
 60      -0.000000000000
 61       0.000000000000
 62       0.000000000000
 63       0.000000000000
 64      -0.000000000000
 65      -0.000000000000
 66       0.000000000000
 67      -0.000000000000
 68       0.000000000000
 69       0.000000000000
 70      -0.000000000000
 71       0.000000000000
 72       0.000000000000
 73      -0.000000000000
 74      -0.000000000000
 75      -0.000000000000
 76      -0.000000000000
 77       0.000000000000
 78       0.000000000000
 79       0.000000000000
 80      -0.000000000000
 81       0.000000000000
 82      -0.000000000000
 83      -0.000000000000
 84       0.000000000000
 85      -0.000000000000
 86       0.000000000000
 87       0.000000000000
 88       0.000000000000
 89      -0.000000000000
 90      -0.000000000000
 91       0.000000000000
 92      -0.000000000000
 93      -0.000000000000
 94       0.000000000000
 95      -0.000000000000
 96       0.000000000000
 Sym=     1a
 Ene= 6.01592845855629E-02
 Spin= Alpha
 Occup= 0.000000
  1      -0.000000000000
  2       0.000000000000
  3      -0.000000000000
  4      -0.000000000000
  5       0.000000000000
  6       0.000000000088
  7      -0.000000000000
  8      -0.000000000000
  9       0.000000000142
 10      -0.000000000000
 11      -0.000000000005
 12      -0.000000000000
 13      -0.000000000000
 14       0.000000000000
 15       0.000000000000
 16      -0.000000000000
 17       0.000000000000
 18      -0.000000000000
 19       0.000000000000
 20      -0.000000000088
 21      -0.000000000000
 22      -0.000000000000
 23      -0.000000000142
 24       0.000000000000
 25      -0.000000000005
 26       0.000000000000
 27       0.000000000000
 28      -0.000000000000
 29       0.000000000000
 30      -0.000000000000
 31       0.000000000000
 32       0.000000000000
 33       0.000000000004
 34       0.000000000000
 35      -0.000000000000
 36       0.000000000000
 37      -0.000000000000
 38       0.000000000004
 39      -0.000000000000
 40       0.000000000000
 41       0.000000000000
 42       0.000000000000
 43      -0.000000000004
 44      -0.000000000000
 45       0.000000000000
 46       0.000000000000
 47      -0.000000000000
 48      -0.000000000004
 49       0.000001123843
 50      -0.000006344323
 51       0.000032459830
 52       0.000001983810
 53      -0.000000001485
 54       0.411937034080
 55       0.000015620378
 56      -0.000000003280
 57       0.660659979160
 58       0.000000303765
 59      -0.022456578442
 60       0.000000000748
 61       0.000000125404
 62       0.000000001200
 63      -0.000001124916
 64       0.000006351182
 65      -0.000032450757
 66       0.000001989085
 67      -0.000000001010
 68      -0.411937035810
 69       0.000015627006
 70       0.000000000035
 71      -0.660659968246
 72      -0.000000304099
 73      -0.022456579305
 74      -0.000000000199
 75      -0.000000125938
 76       0.000000000062
 77      -0.000002931469
 78       0.000003297183
 79      -0.000000180377
 80      -0.000000083492
 81       0.019796860418
 82      -0.000002934340
 83       0.000003290943
 84      -0.000000182545
 85       0.000000079894
 86       0.019796866394
 87       0.000002932254
 88      -0.000003302468
 89      -0.000000180538
 90       0.000000082399
 91      -0.019796872697
 92       0.000002932717
 93      -0.000003301549
 94      -0.000000180519
 95      -0.000000082353
 96      -0.019796872310
 Sym=     1a
 Ene= 6.01592853814405E-02
 Spin= Alpha
 Occup= 0.000000
  1       0.000001124635
  2      -0.000006348848
  3       0.000032436360
  4       0.000001986256
  5       0.000000000696
  6      -0.411937032695
  7       0.000015618340
  8       0.000000001432
  9      -0.660659971769
 10       0.000000304044
 11       0.022456579128
 12       0.000000000114
 13       0.000000126576
 14      -0.000000000358
 15      -0.000001124670
 16       0.000006349749
 17      -0.000032436947
 18       0.000001985739
 19       0.000000000261
 20       0.411937033814
 21       0.000015619145
 22      -0.000000000281
 23       0.660659971409
 24      -0.000000303537
 25       0.022456578898
 26       0.000000000041
 27      -0.000000126193
 28       0.000000000005
 29      -0.000002930516
 30       0.000003300361
 31      -0.000000179898
 32      -0.000000082417
 33      -0.019796870397
 34      -0.000002929948
 35       0.000003303751
 36      -0.000000177860
 37       0.000000083001
 38      -0.019796870248
 39       0.000002930647
 40      -0.000003302336
 41      -0.000000180426
 42       0.000000082473
 43       0.019796872671
 44       0.000002930397
 45      -0.000003303544
 46      -0.000000180501
 47      -0.000000082578
 48       0.019796872549
 49       0.000000000000
 50      -0.000000000000
 51       0.000000000000
 52       0.000000000000
 53      -0.000000000000
 54       0.000000000088
 55       0.000000000000
 56      -0.000000000000
 57       0.000000000142
 58       0.000000000000
 59      -0.000000000005
 60      -0.000000000000
 61       0.000000000000
 62      -0.000000000000
 63      -0.000000000000
 64       0.000000000000
 65      -0.000000000000
 66       0.000000000000
 67       0.000000000000
 68      -0.000000000088
 69       0.000000000000
 70       0.000000000000
 71      -0.000000000142
 72      -0.000000000000
 73      -0.000000000005
 74       0.000000000000
 75      -0.000000000000
 76      -0.000000000000
 77      -0.000000000000
 78       0.000000000000
 79       0.000000000000
 80      -0.000000000000
 81       0.000000000004
 82      -0.000000000000
 83       0.000000000000
 84      -0.000000000000
 85      -0.000000000000
 86       0.000000000004
 87       0.000000000000
 88      -0.000000000000
 89       0.000000000000
 90       0.000000000000
 91      -0.000000000004
 92       0.000000000000
 93      -0.000000000000
 94      -0.000000000000
 95       0.000000000000
 96      -0.000000000004
 Sym=     1a
 Ene= 1.29629675690224E-01
 Spin= Alpha
 Occup= 0.000000
  1       0.000000000003
  2      -0.000000000006
  3      -0.000000000046
  4       0.000000000005
  5      -0.000000000000
  6       0.000000000000
  7       0.000000000016
  8       0.000000000000
  9      -0.000000000000
 10       0.000000000000
 11       0.000000000000
 12      -0.000000000000
 13      -0.000000000000
 14      -0.000000000000
 15       0.000000000003
 16      -0.000000000006
 17      -0.000000000046
 18      -0.000000000005
 19      -0.000000000000
 20       0.000000000000
 21      -0.000000000016
 22       0.000000000000
 23      -0.000000000000
 24       0.000000000000
 25      -0.000000000000
 26      -0.000000000000
 27      -0.000000000000
 28       0.000000000000
 29       0.000000000001
 30       0.000000000033
 31       0.000000000000
 32       0.000000000000
 33      -0.000000000000
 34       0.000000000001
 35       0.000000000033
 36       0.000000000000
 37      -0.000000000000
 38      -0.000000000000
 39       0.000000000001
 40       0.000000000033
 41      -0.000000000000
 42       0.000000000000
 43      -0.000000000000
 44       0.000000000001
 45       0.000000000033
 46      -0.000000000000
 47      -0.000000000000
 48      -0.000000000000
 49       0.085151949261
 50      -0.178203705069
 51      -1.484139610476
 52       0.153212425960
 53      -0.000000009458
 54      -0.000002633399
 55       0.528605366422
 56      -0.000000031398
 57       0.000001649818
 58       0.000177037840
 59      -0.000000011126
 60      -0.000000000028
 61      -0.007197626815
 62      -0.000000002396
 63       0.085151963888
 64      -0.178203727280
 65      -1.484139913434
 66      -0.153212444493
 67      -0.000000011418
 68      -0.000002637226
 69      -0.528605407056
 70      -0.000000020465
 71       0.000001642620
 72       0.000177036364
 73       0.000000011131
 74       0.000000000128
 75      -0.007197627641
 76       0.000000000373
 77       0.027614553509
 78       1.063179271309
 79       0.004347293112
 80       0.004833008806
 81       0.000000036035
 82       0.027614547571
 83       1.063179181699
 84       0.004347294757
 85      -0.004833002739
 86       0.000000035511
 87       0.027614561963
 88       1.063179447210
 89      -0.004347293390
 90       0.004833011146
 91       0.000000035744
 92       0.027614559203
 93       1.063179373136
 94      -0.004347293402
 95      -0.004833010418
 96       0.000000035454
 Sym=     1a
 Ene= 1.29629677099788E-01
 Spin= Alpha
 Occup= 0.000000
  1      -0.085151955022
  2       0.178203705417
  3       1.484139742543
  4      -0.153212431997
  5       0.000000000915
  6      -0.000002631582
  7      -0.528605379581
  8       0.000000001876
  9       0.000001648252
 10      -0.000177036355
 11      -0.000000011128
 12       0.000000000039
 13       0.007197628281
 14       0.000000000478
 15      -0.085151958538
 16       0.178203709514
 17       1.484139811817
 18       0.153212436736
 19       0.000000001484
 20      -0.000002632355
 21       0.528605398654
 22      -0.000000001296
 23       0.000001647762
 24      -0.000177036227
 25       0.000000011097
 26       0.000000000024
 27       0.007197627572
 28      -0.000000000101
 29      -0.027614554032
 30      -1.063179300721
 31      -0.004347293287
 32      -0.004833011491
 33       0.000000036024
 34      -0.027614554658
 35      -1.063179296043
 36      -0.004347293009
 37       0.004833010010
 38       0.000000036088
 39      -0.027614554806
 40      -1.063179342189
 41       0.004347293592
 42      -0.004833010986
 43       0.000000035673
 44      -0.027614557196
 45      -1.063179347985
 46       0.004347293371
 47       0.004833009887
 48       0.000000035694
 49       0.000000000003
 50      -0.000000000006
 51      -0.000000000046
 52       0.000000000005
 53      -0.000000000000
 54      -0.000000000000
 55       0.000000000016
 56       0.000000000000
 57      -0.000000000000
 58       0.000000000000
 59       0.000000000000
 60      -0.000000000000
 61      -0.000000000000
 62      -0.000000000000
 63       0.000000000003
 64      -0.000000000006
 65      -0.000000000046
 66      -0.000000000005
 67       0.000000000000
 68      -0.000000000000
 69      -0.000000000016
 70      -0.000000000000
 71       0.000000000000
 72       0.000000000000
 73       0.000000000000
 74      -0.000000000000
 75      -0.000000000000
 76      -0.000000000000
 77       0.000000000001
 78       0.000000000033
 79       0.000000000000
 80       0.000000000000
 81       0.000000000000
 82       0.000000000001
 83       0.000000000033
 84       0.000000000000
 85      -0.000000000000
 86      -0.000000000000
 87       0.000000000001
 88       0.000000000033
 89      -0.000000000000
 90       0.000000000000
 91       0.000000000000
 92       0.000000000001
 93       0.000000000033
 94      -0.000000000000
 95      -0.000000000000
 96      -0.000000000000
 Sym=     1a
 Ene= 1.52307978085634E-01
 Spin= Alpha
 Occup= 0.000000
  1       0.000000000000
  2      -0.000000000000
  3       0.000000000000
  4      -0.000000000000
  5      -0.000000000007
  6      -0.000000000000
  7      -0.000000000000
  8      -0.000000000019
  9       0.000000000000
 10       0.000000000000
 11      -0.000000000000
 12       0.000000000000
 13      -0.000000000000
 14      -0.000000000000
 15       0.000000000000
 16      -0.000000000000
 17       0.000000000000
 18       0.000000000000
 19      -0.000000000007
 20      -0.000000000000
 21       0.000000000000
 22      -0.000000000019
 23      -0.000000000000
 24       0.000000000000
 25       0.000000000000
 26       0.000000000000
 27      -0.000000000000
 28       0.000000000000
 29       0.000000000002
 30       0.000000000029
 31      -0.000000000000
 32      -0.000000000000
 33      -0.000000000000
 34      -0.000000000002
 35      -0.000000000029
 36       0.000000000000
 37      -0.000000000000
 38       0.000000000000
 39       0.000000000002
 40       0.000000000029
 41       0.000000000000
 42      -0.000000000000
 43      -0.000000000000
 44      -0.000000000002
 45      -0.000000000029
 46      -0.000000000000
 47      -0.000000000000
 48       0.000000000000
 49      -0.000000004544
 50       0.000000010760
 51       0.000000076479
 52      -0.000000005931
 53      -0.260918439105
 54      -0.000000000748
 55      -0.000000020358
 56      -0.707105315747
 57      -0.000000001123
 58      -0.000000000672
 59       0.000000000109
 60      -0.000000200399
 61      -0.000000000266
 62      -0.018175093584
 63      -0.000000002742
 64       0.000000006302
 65       0.000000040988
 66       0.000000004875
 67      -0.260918461032
 68      -0.000000000125
 69       0.000000022104
 70      -0.707105384634
 71       0.000000000350
 72       0.000000000030
 73       0.000000000034
 74      -0.000000199700
 75       0.000000000454
 76       0.018175093755
 77       0.060958585406
 78       1.095812251477
 79      -0.002761947318
 80      -0.000574904066
 81       0.000000250498
 82      -0.060958594294
 83      -1.095812348013
 84       0.002761944066
 85      -0.000574905733
 86      -0.000000248852
 87       0.060958587607
 88       1.095812348858
 89       0.002761948141
 90      -0.000574904677
 91       0.000000247187
 92      -0.060958589015
 93      -1.095812420283
 94      -0.002761947865
 95      -0.000574904246
 96      -0.000000247202
 Sym=     1a
 Ene= 1.52307978511651E-01
 Spin= Alpha
 Occup= 0.000000
  1       0.000000003175
  2      -0.000000006140
  3      -0.000000068850
  4       0.000000002459
  5       0.260918447618
  6      -0.000000000054
  7       0.000000001937
  8       0.707105345505
  9      -0.000000000128
 10       0.000000000172
 11      -0.000000000002
 12      -0.000000199658
 13       0.000000000494
 14       0.018175093569
 15      -0.000000003064
 16       0.000000004671
 17       0.000000068105
 18       0.000000002986
 19       0.260918450480
 20      -0.000000000183
 21       0.000000000512
 22       0.707105355185
 23       0.000000000061
 24      -0.000000000092
 25      -0.000000000003
 26      -0.000000199600
 27      -0.000000000593
 28      -0.018175093376
 29      -0.060958585792
 30      -1.095812304283
 31       0.002761948127
 32       0.000574904342
 33       0.000000247303
 34       0.060958588958
 35       1.095812374600
 36      -0.002761947524
 37       0.000574904659
 38      -0.000000246911
 39      -0.060958587244
 40      -1.095812381183
 41      -0.002761948037
 42       0.000574904467
 43       0.000000247227
 44       0.060958587694
 45       1.095812311596
 46       0.002761947673
 47       0.000574904584
 48      -0.000000247221
 49      -0.000000000000
 50       0.000000000000
 51       0.000000000000
 52      -0.000000000000
 53      -0.000000000007
 54       0.000000000000
 55      -0.000000000000
 56      -0.000000000019
 57       0.000000000000
 58      -0.000000000000
 59      -0.000000000000
 60       0.000000000000
 61      -0.000000000000
 62      -0.000000000000
 63      -0.000000000000
 64       0.000000000000
 65       0.000000000000
 66      -0.000000000000
 67      -0.000000000007
 68       0.000000000000
 69      -0.000000000000
 70      -0.000000000019
 71      -0.000000000000
 72      -0.000000000000
 73      -0.000000000000
 74      -0.000000000000
 75       0.000000000000
 76       0.000000000000
 77       0.000000000002
 78       0.000000000029
 79      -0.000000000000
 80      -0.000000000000
 81       0.000000000000
 82      -0.000000000002
 83      -0.000000000029
 84       0.000000000000
 85      -0.000000000000
 86       0.000000000000
 87       0.000000000002
 88       0.000000000029
 89       0.000000000000
 90      -0.000000000000
 91       0.000000000000
 92      -0.000000000002
 93      -0.000000000029
 94      -0.000000000000
 95      -0.000000000000
 96      -0.000000000000
 Sym=     1a
 Ene= 1.64234977602091E-01
 Spin= Alpha
 Occup= 0.000000
  1       0.107220295084
  2      -0.188373822613
  3      -2.173272017215
  4       0.100081758845
  5      -0.000000007719
  6       0.000004532805
  7       0.143006730397
  8      -0.000000030377
  9      -0.000000731241
 10       0.000744419333
 11      -0.000000342919
 12       0.000000000066
 13       0.005910187283
 14      -0.000000000638
 15      -0.107220291253
 16       0.188373812036
 17       2.173271969544
 18       0.100081753734
 19      -0.000000008024
 20      -0.000004530428
 21       0.143006711620
 22      -0.000000011999
 23       0.000000732547
 24      -0.000744418855
 25      -0.000000342963
 26      -0.000000000013
 27      -0.005910188161
 28       0.000000000420
 29       0.028622636214
 30       1.196995681873
 31      -0.003532317319
 32       0.000793218145
 33       0.000000135100
 34       0.028622631305
 35       1.196995599229
 36      -0.003532317211
 37      -0.000793217828
 38       0.000000135025
 39      -0.028622632401
 40      -1.196995581760
 41      -0.003532317419
 42      -0.000793217787
 43      -0.000000134958
 44      -0.028622633669
 45      -1.196995626976
 46      -0.003532317654
 47       0.000793217823
 48      -0.000000134970
 49       0.000000000001
 50      -0.000000000002
 51      -0.000000000027
 52       0.000000000001
 53      -0.000000000000
 54      -0.000000000000
 55       0.000000000002
 56       0.000000000000
 57       0.000000000000
 58       0.000000000000
 59       0.000000000000
 60      -0.000000000000
 61       0.000000000000
 62      -0.000000000000
 63      -0.000000000001
 64       0.000000000002
 65       0.000000000027
 66       0.000000000001
 67       0.000000000000
 68       0.000000000000
 69       0.000000000002
 70      -0.000000000000
 71      -0.000000000000
 72      -0.000000000000
 73      -0.000000000000
 74      -0.000000000000
 75      -0.000000000000
 76       0.000000000000
 77       0.000000000000
 78       0.000000000015
 79      -0.000000000000
 80       0.000000000000
 81       0.000000000000
 82       0.000000000000
 83       0.000000000015
 84      -0.000000000000
 85      -0.000000000000
 86       0.000000000000
 87      -0.000000000000
 88      -0.000000000015
 89      -0.000000000000
 90      -0.000000000000
 91       0.000000000000
 92      -0.000000000000
 93      -0.000000000015
 94      -0.000000000000
 95       0.000000000000
 96       0.000000000000
 Sym=     1a
 Ene= 1.64234980263252E-01
 Spin= Alpha
 Occup= 0.000000
  1       0.000000000001
  2      -0.000000000002
  3      -0.000000000027
  4       0.000000000001
  5      -0.000000000000
  6       0.000000000000
  7       0.000000000002
  8       0.000000000000
  9      -0.000000000000
 10       0.000000000000
 11      -0.000000000000
 12      -0.000000000000
 13       0.000000000000
 14      -0.000000000000
 15      -0.000000000001
 16       0.000000000002
 17       0.000000000027
 18       0.000000000001
 19      -0.000000000000
 20      -0.000000000000
 21       0.000000000002
 22       0.000000000000
 23       0.000000000000
 24      -0.000000000000
 25      -0.000000000000
 26      -0.000000000000
 27      -0.000000000000
 28       0.000000000000
 29       0.000000000000
 30       0.000000000015
 31      -0.000000000000
 32       0.000000000000
 33       0.000000000000
 34       0.000000000000
 35       0.000000000015
 36      -0.000000000000
 37      -0.000000000000
 38       0.000000000000
 39      -0.000000000000
 40      -0.000000000015
 41      -0.000000000000
 42      -0.000000000000
 43      -0.000000000000
 44      -0.000000000000
 45      -0.000000000015
 46      -0.000000000000
 47       0.000000000000
 48      -0.000000000000
 49      -0.107220299700
 50       0.188373825563
 51       2.173272114213
 52      -0.100081766252
 53       0.000000001461
 54       0.000004530945
 55      -0.143006781059
 56       0.000000027134
 57      -0.000000733777
 58      -0.000744419178
 59      -0.000000343094
 60       0.000000000150
 61      -0.005910187650
 62       0.000000000856
 63       0.107220286327
 64      -0.188373795705
 65      -2.173271877125
 66      -0.100081748530
 67      -0.000000000932
 68      -0.000004530350
 69      -0.143006693573
 70      -0.000000019849
 71       0.000000734593
 72       0.000744418107
 73      -0.000000342925
 74      -0.000000000239
 75       0.005910189295
 76       0.000000000061
 77      -0.028622635057
 78      -1.196995745207
 79       0.003532315699
 80      -0.000793219493
 81       0.000000132810
 82      -0.028622628636
 83      -1.196995688544
 84       0.003532315656
 85       0.000793215478
 86       0.000000133697
 87       0.028622632516
 88       1.196995562984
 89       0.003532317601
 90       0.000793217509
 91      -0.000000135218
 92       0.028622627070
 93       1.196995527087
 94       0.003532318050
 95      -0.000793218268
 96      -0.000000134781
 Sym=     1a
 Ene= 2.30939101017879E-01
 Spin= Alpha
 Occup= 0.000000
  1      -0.000000000711
  2      -0.000000000040
  3       0.000000019831
  4      -0.000000001659
  5      -0.248315827913
  6       0.000000000062
  7       0.000000000241
  8      -1.467490318843
  9      -0.000000000171
 10      -0.000000000094
 11       0.000000000024
 12       0.000000182499
 13      -0.000000000058
 14       0.017195240091
 15       0.000000000486
 16       0.000000000285
 17      -0.000000014906
 18      -0.000000000879
 19       0.248315826418
 20       0.000000000291
 21       0.000000001333
 22       1.467490315332
 23       0.000000000530
 24       0.000000000057
 25      -0.000000000013
 26      -0.000000182494
 27      -0.000000000067
 28       0.017195240269
 29      -0.016157438945
 30       1.570556392568
 31       0.005598777783
 32      -0.003683427197
 33      -0.000000136415
 34       0.016157439302
 35      -1.570556410215
 36      -0.005598777870
 37      -0.003683427382
 38       0.000000136422
 39       0.016157438784
 40      -1.570556391231
 41       0.005598777786
 42       0.003683427529
 43       0.000000136463
 44      -0.016157439422
 45       1.570556401573
 46      -0.005598777819
 47       0.003683427304
 48      -0.000000136497
 49      -0.000000000000
 50       0.000000000000
 51      -0.000000000000
 52      -0.000000000000
 53       0.000000001422
 54       0.000000000000
 55      -0.000000000000
 56       0.000000008464
 57       0.000000000000
 58       0.000000000000
 59      -0.000000000000
 60       0.000000000000
 61       0.000000000000
 62      -0.000000000098
 63       0.000000000000
 64      -0.000000000000
 65       0.000000000000
 66       0.000000000000
 67      -0.000000001422
 68       0.000000000000
 69       0.000000000000
 70      -0.000000008464
 71       0.000000000000
 72      -0.000000000000
 73       0.000000000000
 74      -0.000000000000
 75      -0.000000000000
 76      -0.000000000098
 77       0.000000000085
 78      -0.000000009065
 79      -0.000000000033
 80       0.000000000021
 81      -0.000000000000
 82      -0.000000000085
 83       0.000000009065
 84       0.000000000033
 85       0.000000000021
 86       0.000000000000
 87      -0.000000000085
 88       0.000000009065
 89      -0.000000000033
 90      -0.000000000021
 91       0.000000000000
 92       0.000000000085
 93      -0.000000009065
 94       0.000000000033
 95      -0.000000000021
 96      -0.000000000000
 Sym=     1a
 Ene= 2.30939101077305E-01
 Spin= Alpha
 Occup= 0.000000
  1       0.000000000000
  2      -0.000000000000
  3      -0.000000000000
  4      -0.000000000000
  5      -0.000000001422
  6       0.000000000000
  7      -0.000000000000
  8      -0.000000008464
  9      -0.000000000000
 10       0.000000000000
 11      -0.000000000000
 12       0.000000000000
 13      -0.000000000000
 14       0.000000000098
 15       0.000000000000
 16      -0.000000000000
 17       0.000000000000
 18       0.000000000000
 19       0.000000001422
 20       0.000000000000
 21      -0.000000000000
 22       0.000000008464
 23      -0.000000000000
 24      -0.000000000000
 25       0.000000000000
 26      -0.000000000000
 27      -0.000000000000
 28       0.000000000098
 29      -0.000000000085
 30       0.000000009065
 31       0.000000000033
 32      -0.000000000021
 33      -0.000000000000
 34       0.000000000085
 35      -0.000000009065
 36      -0.000000000033
 37      -0.000000000021
 38       0.000000000000
 39       0.000000000085
 40      -0.000000009065
 41       0.000000000033
 42       0.000000000021
 43       0.000000000000
 44      -0.000000000085
 45       0.000000009065
 46      -0.000000000033
 47       0.000000000021
 48      -0.000000000000
 49      -0.000000001863
 50       0.000000004257
 51       0.000000041185
 52      -0.000000002237
 53      -0.248315835537
 54      -0.000000000366
 55       0.000000002452
 56      -1.467490345003
 57      -0.000000000145
 58      -0.000000000051
 59       0.000000000014
 60      -0.000000182686
 61      -0.000000000016
 62       0.017195239179
 63       0.000000001430
 64      -0.000000001476
 65      -0.000000037278
 66      -0.000000001252
 67       0.248315821720
 68       0.000000000043
 69       0.000000005874
 70       1.467490292304
 71       0.000000000132
 72      -0.000000000003
 73       0.000000000039
 74       0.000000182592
 75      -0.000000000060
 76       0.017195241109
 77      -0.016157437637
 78       1.570556417850
 79       0.005598777739
 80      -0.003683427844
 81       0.000000136444
 82       0.016157435203
 83      -1.570556453089
 84      -0.005598777999
 85      -0.003683427652
 86      -0.000000136179
 87       0.016157440056
 88      -1.570556347567
 89       0.005598777932
 90       0.003683427363
 91      -0.000000136497
 92      -0.016157440220
 93       1.570556375931
 94      -0.005598777926
 95       0.003683427495
 96       0.000000136515
 Sym=     1a
 Ene= 3.78393850496242E-01
 Spin= Alpha
 Occup= 0.000000
  1       0.064030957110
  2      -0.123190650262
  3      -4.826331794489
  4      -0.209015526590
  5      -0.000000000744
  6      -0.000002795426
  7      -3.307846831849
  8       0.000000003754
  9       0.000001443045
 10       0.001046133362
 11       0.000000406181
 12       0.000000000053
 13       0.031601863792
 14      -0.000000000083
 15      -0.064030957790
 16       0.123190650286
 17       4.826331806697
 18      -0.209015523479
 19      -0.000000001475
 20       0.000002796269
 21      -3.307846827278
 22      -0.000000002534
 23      -0.000001441696
 24      -0.001046132811
 25       0.000000406229
 26       0.000000000020
 27      -0.031601864018
 28      -0.000000000197
 29      -0.129454611798
 30      -0.230947531188
 31      -0.011495254738
 32      -0.013226995036
 33      -0.000000169795
 34      -0.129454612680
 35      -0.230947528776
 36      -0.011495254959
 37       0.013226995474
 38      -0.000000169988
 39       0.129454611028
 40       0.230947525438
 41      -0.011495254769
 42       0.013226996016
 43       0.000000169501
 44       0.129454609311
 45       0.230947523747
 46      -0.011495254540
 47      -0.013226996078
 48       0.000000169443
 49       0.000000078917
 50      -0.000000151829
 51      -0.000005948335
 52      -0.000000257606
 53       0.000000000000
 54       0.000000000003
 55      -0.000004076840
 56       0.000000000000
 57      -0.000000000002
 58       0.000000001289
 59      -0.000000000001
 60      -0.000000000000
 61       0.000000038949
 62      -0.000000000000
 63      -0.000000078917
 64       0.000000151829
 65       0.000005948335
 66      -0.000000257606
 67      -0.000000000000
 68      -0.000000000003
 69      -0.000004076840
 70      -0.000000000000
 71       0.000000000002
 72      -0.000000001289
 73      -0.000000000001
 74       0.000000000000
 75      -0.000000038949
 76      -0.000000000000
 77      -0.000000159550
 78      -0.000000284637
 79      -0.000000014168
 80      -0.000000016302
 81       0.000000000000
 82      -0.000000159550
 83      -0.000000284637
 84      -0.000000014168
 85       0.000000016302
 86       0.000000000000
 87       0.000000159550
 88       0.000000284637
 89      -0.000000014168
 90       0.000000016302
 91      -0.000000000000
 92       0.000000159550
 93       0.000000284637
 94      -0.000000014168
 95      -0.000000016302
 96      -0.000000000000
 Sym=     1a
 Ene= 3.78393851534191E-01
 Spin= Alpha
 Occup= 0.000000
  1       0.000000078917
  2      -0.000000151829
  3      -0.000005948335
  4      -0.000000257606
  5      -0.000000000000
  6      -0.000000000003
  7      -0.000004076840
  8       0.000000000000
  9       0.000000000002
 10       0.000000001289
 11       0.000000000001
 12       0.000000000000
 13       0.000000038949
 14      -0.000000000000
 15      -0.000000078917
 16       0.000000151829
 17       0.000005948335
 18      -0.000000257606
 19      -0.000000000000
 20       0.000000000003
 21      -0.000004076840
 22      -0.000000000000
 23      -0.000000000002
 24      -0.000000001289
 25       0.000000000001
 26       0.000000000000
 27      -0.000000038949
 28      -0.000000000000
 29      -0.000000159550
 30      -0.000000284637
 31      -0.000000014168
 32      -0.000000016302
 33      -0.000000000000
 34      -0.000000159550
 35      -0.000000284637
 36      -0.000000014168
 37       0.000000016302
 38      -0.000000000000
 39       0.000000159550
 40       0.000000284637
 41      -0.000000014168
 42       0.000000016302
 43       0.000000000000
 44       0.000000159550
 45       0.000000284637
 46      -0.000000014168
 47      -0.000000016302
 48       0.000000000000
 49      -0.064030959749
 50       0.123190659804
 51       4.826331853993
 52       0.209015533813
 53      -0.000000003748
 54      -0.000002795396
 55       3.307846788153
 56      -0.000000018717
 57       0.000001441710
 58      -0.001046138048
 59       0.000000406409
 60       0.000000000067
 61      -0.031601865826
 62       0.000000006251
 63       0.064030958794
 64      -0.123190645453
 65      -4.826331816786
 66       0.209015513978
 67       0.000000000470
 68       0.000002795219
 69       3.307846845501
 70       0.000000002329
 71      -0.000001440754
 72       0.001046133071
 73       0.000000406345
 74      -0.000000000178
 75       0.031601866250
 76       0.000000000569
 77       0.129454602973
 78       0.230947519492
 79       0.011495253323
 80       0.013226998142
 81      -0.000000171327
 82       0.129454594416
 83       0.230947491944
 84       0.011495242983
 85      -0.013227017256
 86      -0.000000171294
 87      -0.129454622182
 88      -0.230947510172
 89       0.011495256335
 90      -0.013226996552
 91       0.000000169146
 92      -0.129454620029
 93      -0.230947512477
 94       0.011495255285
 95       0.013226996313
 96       0.000000169555
 Sym=     1a
 Ene= 4.52688192793740E-01
 Spin= Alpha
 Occup= 0.000000
  1      -0.000000000001
  2       0.000000000006
  3      -0.000000000004
  4       0.000000000004
  5      -0.000000000000
  6      -0.000000000000
  7      -0.000000000007
  8      -0.000000000000
  9       0.000000000000
 10      -0.000000000000
 11      -0.000000000000
 12      -0.000000000000
 13       0.000000000000
 14       0.000000000000
 15      -0.000000000001
 16       0.000000000006
 17      -0.000000000004
 18      -0.000000000004
 19       0.000000000000
 20      -0.000000000000
 21       0.000000000007
 22      -0.000000000000
 23       0.000000000000
 24      -0.000000000000
 25       0.000000000000
 26      -0.000000000000
 27       0.000000000000
 28       0.000000000000
 29      -0.000000000001
 30       0.000000000001
 31      -0.000000000000
 32      -0.000000000000
 33      -0.000000000000
 34      -0.000000000001
 35       0.000000000001
 36      -0.000000000000
 37       0.000000000000
 38      -0.000000000000
 39      -0.000000000001
 40       0.000000000001
 41       0.000000000000
 42      -0.000000000000
 43      -0.000000000000
 44      -0.000000000001
 45       0.000000000001
 46       0.000000000000
 47       0.000000000000
 48      -0.000000000000
 49       0.080518673322
 50      -0.702673916249
 51       0.502567227787
 52      -0.404996006484
 53      -0.000000000603
 54      -0.000013498880
 55       0.824439734872
 56       0.000000013742
 57       0.000010956540
 58       0.026835426606
 59      -0.000000843449
 60       0.000000000207
 61      -0.040744127848
 62      -0.000000002191
 63       0.080518677113
 64      -0.702673921474
 65       0.502567007419
 66       0.404996028430
 67      -0.000000003729
 68      -0.000013499849
 69      -0.824439586301
 70       0.000000005375
 71       0.000010954589
 72       0.026835423642
 73       0.000000843485
 74       0.000000000165
 75      -0.040744129306
 76      -0.000000000855
 77       0.071693440750
 78      -0.140068344402
 79       0.035614521007
 80       0.003802284017
 81      -0.000000523349
 82       0.071693450459
 83      -0.140068333976
 84       0.035614523963
 85      -0.003802275196
 86      -0.000000520381
 87       0.071693439601
 88      -0.140068352704
 89      -0.035614520058
 90       0.003802287169
 91      -0.000000521396
 92       0.071693448877
 93      -0.140068349198
 94      -0.035614518675
 95      -0.003802286290
 96      -0.000000521744
 Sym=     1a
 Ene= 4.52688193671471E-01
 Spin= Alpha
 Occup= 0.000000
  1      -0.080518672292
  2       0.702673894474
  3      -0.502567073680
  4       0.404996020343
  5       0.000000000700
  6      -0.000013495659
  7      -0.824439690529
  8      -0.000000004225
  9       0.000010954662
 10      -0.026835421484
 11      -0.000000843094
 12       0.000000000059
 13       0.040744130342
 14      -0.000000000127
 15      -0.080518672893
 16       0.702673891554
 17      -0.502567032945
 18      -0.404996019582
 19       0.000000000389
 20      -0.000013495345
 21       0.824439679859
 22      -0.000000001886
 23       0.000010954117
 24      -0.026835420898
 25       0.000000843002
 26       0.000000000016
 27       0.040744130601
 28       0.000000000492
 29      -0.071693459442
 30       0.140068334368
 31      -0.035614520647
 32      -0.003802287821
 33      -0.000000521899
 34      -0.071693467195
 35       0.140068335210
 36      -0.035614520146
 37       0.003802285997
 38      -0.000000521898
 39      -0.071693460414
 40       0.140068326920
 41       0.035614521175
 42      -0.003802287413
 43      -0.000000521613
 44      -0.071693470340
 45       0.140068333129
 46       0.035614519984
 47       0.003802286493
 48      -0.000000521583
 49      -0.000000000001
 50       0.000000000006
 51      -0.000000000004
 52       0.000000000004
 53      -0.000000000000
 54       0.000000000000
 55      -0.000000000007
 56       0.000000000000
 57      -0.000000000000
 58      -0.000000000000
 59      -0.000000000000
 60      -0.000000000000
 61       0.000000000000
 62      -0.000000000000
 63      -0.000000000001
 64       0.000000000006
 65      -0.000000000004
 66      -0.000000000004
 67      -0.000000000000
 68       0.000000000000
 69       0.000000000007
 70      -0.000000000000
 71       0.000000000000
 72      -0.000000000000
 73       0.000000000000
 74      -0.000000000000
 75       0.000000000000
 76      -0.000000000000
 77      -0.000000000001
 78       0.000000000001
 79      -0.000000000000
 80      -0.000000000000
 81       0.000000000000
 82      -0.000000000001
 83       0.000000000001
 84      -0.000000000000
 85       0.000000000000
 86       0.000000000000
 87      -0.000000000001
 88       0.000000000001
 89       0.000000000000
 90      -0.000000000000
 91       0.000000000000
 92      -0.000000000001
 93       0.000000000001
 94       0.000000000000
 95       0.000000000000
 96      -0.000000000000
 Sym=     1a
 Ene= 4.95178230814214E-01
 Spin= Alpha
 Occup= 0.000000
  1      -0.000000000077
  2       0.000000000663
  3      -0.000000001690
  4      -0.000000000078
  5      -0.000000000000
  6      -0.000000000000
  7       0.000000000639
  8       0.000000000000
  9       0.000000000000
 10      -0.000000000059
 11      -0.000000000000
 12       0.000000000000
 13      -0.000000000031
 14       0.000000000000
 15      -0.000000000077
 16       0.000000000663
 17      -0.000000001690
 18       0.000000000078
 19      -0.000000000000
 20      -0.000000000000
 21      -0.000000000639
 22       0.000000000000
 23       0.000000000000
 24      -0.000000000059
 25       0.000000000000
 26       0.000000000000
 27      -0.000000000031
 28      -0.000000000000
 29       0.000000000448
 30       0.000000000388
 31       0.000000000012
 32       0.000000000014
 33      -0.000000000000
 34       0.000000000448
 35       0.000000000388
 36       0.000000000012
 37      -0.000000000014
 38      -0.000000000000
 39       0.000000000448
 40       0.000000000388
 41      -0.000000000012
 42       0.000000000014
 43      -0.000000000000
 44       0.000000000448
 45       0.000000000388
 46      -0.000000000012
 47      -0.000000000014
 48      -0.000000000000
 49      -0.081810022930
 50       0.703437192505
 51      -1.793328221660
 52      -0.082268919308
 53       0.000000061877
 54       0.000046517425
 55       0.677695382746
 56      -0.000000571524
 57      -0.000039915236
 58      -0.062805514189
 59       0.000003476369
 60      -0.000000000383
 61      -0.033311855183
 62      -0.000000122365
 63      -0.081810017660
 64       0.703437212835
 65      -1.793328632669
 66       0.082268941647
 67       0.000000060783
 68       0.000046514654
 69      -0.677695228025
 70      -0.000000578474
 71      -0.000039905588
 72      -0.062805521590
 73      -0.000003476065
 74      -0.000000000134
 75      -0.033311855623
 76       0.000000119590
 77       0.475419757314
 78       0.412064771444
 79       0.012336949416
 80       0.015208888182
 81       0.000001132244
 82       0.475418398499
 83       0.412065235250
 84       0.012337080743
 85      -0.015208885868
 86       0.000001125847
 87       0.475419790362
 88       0.412064778894
 89      -0.012336950955
 90       0.015208888063
 91       0.000001125253
 92       0.475418439825
 93       0.412065228678
 94      -0.012337078967
 95      -0.015208895655
 96       0.000001125605
 Sym=     1a
 Ene= 4.95178231257904E-01
 Spin= Alpha
 Occup= 0.000000
  1      -0.081810022700
  2       0.703437215841
  3      -1.793328396730
  4      -0.082268909783
  5      -0.000000036898
  6      -0.000046507688
  7       0.677695254804
  8       0.000000361000
  9       0.000039903143
 10      -0.062805519680
 11      -0.000003475531
 12       0.000000000044
 13      -0.033311854612
 14       0.000000075021
 15      -0.081810023012
 16       0.703437222265
 17      -1.793328413395
 18       0.082268910633
 19      -0.000000036892
 20      -0.000046508616
 21      -0.677695262314
 22       0.000000362204
 23       0.000039900941
 24      -0.062805520292
 25       0.000003475287
 26       0.000000000071
 27      -0.033311853843
 28      -0.000000074247
 29       0.475418679844
 30       0.412065124926
 31       0.012337053031
 32       0.015208893233
 33      -0.000001127082
 34       0.475419521715
 35       0.412064842068
 36       0.012336971385
 37      -0.015208888888
 38      -0.000001126785
 39       0.475418683635
 40       0.412065127784
 41      -0.012337052890
 42       0.015208894057
 43      -0.000001125274
 44       0.475419523076
 45       0.412064847735
 46      -0.012336973222
 47      -0.015208888734
 48      -0.000001125461
 49       0.000000000077
 50      -0.000000000663
 51       0.000000001690
 52       0.000000000078
 53      -0.000000000000
 54      -0.000000000000
 55      -0.000000000639
 56       0.000000000000
 57       0.000000000000
 58       0.000000000059
 59      -0.000000000000
 60       0.000000000000
 61       0.000000000031
 62       0.000000000000
 63       0.000000000077
 64      -0.000000000663
 65       0.000000001690
 66      -0.000000000078
 67      -0.000000000000
 68      -0.000000000000
 69       0.000000000639
 70       0.000000000000
 71       0.000000000000
 72       0.000000000059
 73       0.000000000000
 74      -0.000000000000
 75       0.000000000031
 76      -0.000000000000
 77      -0.000000000448
 78      -0.000000000388
 79      -0.000000000012
 80      -0.000000000014
 81      -0.000000000000
 82      -0.000000000448
 83      -0.000000000388
 84      -0.000000000012
 85       0.000000000014
 86      -0.000000000000
 87      -0.000000000448
 88      -0.000000000388
 89       0.000000000012
 90      -0.000000000014
 91      -0.000000000000
 92      -0.000000000448
 93      -0.000000000388
 94       0.000000000012
 95       0.000000000014
 96      -0.000000000000
 Sym=     1a
 Ene= 4.95709018950808E-01
 Spin= Alpha
 Occup= 0.000000
  1       0.000000059104
  2      -0.000000511670
  3       0.000001317582
  4       0.000000062871
  5      -0.051700158297
  6       0.000000000304
  7      -0.000000501448
  8       0.491428057036
  9      -0.000000000137
 10       0.000000046713
 11       0.000000000038
 12      -0.000000205869
 13       0.000000025251
 14       0.101519047213
 15       0.000000060031
 16      -0.000000513198
 17       0.000001310555
 18      -0.000000062628
 19      -0.051700157792
 20       0.000000000635
 21       0.000000506884
 22       0.491428063743
 23       0.000000000108
 24       0.000000045590
 25      -0.000000000069
 26      -0.000000205869
 27       0.000000024355
 28      -0.101519046826
 29      -0.573458548180
 30       0.190287099329
 31       0.054334070867
 32       0.003192480960
 33       0.000000069176
 34       0.573457846106
 35      -0.190287697414
 36      -0.054334088353
 37       0.003192506235
 38      -0.000000069087
 39      -0.573458548301
 40       0.190287092771
 41      -0.054334070386
 42       0.003192483394
 43       0.000000069604
 44       0.573457852371
 45      -0.190287699609
 46       0.054334088901
 47       0.003192505782
 48      -0.000000069630
 49      -0.000000000000
 50       0.000000000000
 51      -0.000000000000
 52      -0.000000000000
 53      -0.000000000900
 54      -0.000000000000
 55       0.000000000000
 56       0.000000008551
 57       0.000000000000
 58      -0.000000000000
 59       0.000000000000
 60       0.000000000000
 61      -0.000000000000
 62       0.000000001766
 63      -0.000000000000
 64       0.000000000000
 65      -0.000000000000
 66       0.000000000000
 67      -0.000000000900
 68       0.000000000000
 69      -0.000000000000
 70       0.000000008551
 71      -0.000000000000
 72      -0.000000000000
 73       0.000000000000
 74       0.000000000000
 75      -0.000000000000
 76      -0.000000001766
 77      -0.000000009978
 78       0.000000003311
 79       0.000000000945
 80       0.000000000056
 81      -0.000000000000
 82       0.000000009978
 83      -0.000000003311
 84      -0.000000000945
 85       0.000000000056
 86       0.000000000000
 87      -0.000000009978
 88       0.000000003311
 89      -0.000000000945
 90       0.000000000056
 91      -0.000000000000
 92       0.000000009978
 93      -0.000000003311
 94       0.000000000945
 95       0.000000000056
 96       0.000000000000
 Sym=     1a
 Ene= 4.95709019103436E-01
 Spin= Alpha
 Occup= 0.000000
  1      -0.000000000000
  2       0.000000000000
  3      -0.000000000000
  4      -0.000000000000
  5      -0.000000000900
  6       0.000000000000
  7       0.000000000000
  8       0.000000008551
  9      -0.000000000000
 10      -0.000000000000
 11       0.000000000000
 12      -0.000000000000
 13      -0.000000000000
 14       0.000000001766
 15      -0.000000000000
 16       0.000000000000
 17      -0.000000000000
 18       0.000000000000
 19      -0.000000000900
 20       0.000000000000
 21      -0.000000000000
 22       0.000000008551
 23      -0.000000000000
 24      -0.000000000000
 25      -0.000000000000
 26      -0.000000000000
 27      -0.000000000000
 28      -0.000000001766
 29      -0.000000009978
 30       0.000000003311
 31       0.000000000945
 32       0.000000000056
 33       0.000000000000
 34       0.000000009978
 35      -0.000000003311
 36      -0.000000000945
 37       0.000000000056
 38      -0.000000000000
 39      -0.000000009978
 40       0.000000003311
 41      -0.000000000945
 42       0.000000000056
 43       0.000000000000
 44       0.000000009978
 45      -0.000000003311
 46       0.000000000945
 47       0.000000000056
 48      -0.000000000000
 49       0.000000097677
 50      -0.000000835911
 51       0.000002126604
 52       0.000000096415
 53       0.051700161873
 54       0.000000000181
 55      -0.000000797987
 56      -0.491428067729
 57      -0.000000002108
 58       0.000000073192
 59       0.000000000099
 60      -0.000000206418
 61       0.000000037885
 62      -0.101519043364
 63       0.000000097304
 64      -0.000000839091
 65       0.000002128013
 66      -0.000000093658
 67       0.051700157774
 68       0.000000000651
 69       0.000000791487
 70      -0.491428064596
 71      -0.000000000568
 72       0.000000074252
 73       0.000000000045
 74      -0.000000205942
 75       0.000000038901
 76       0.101519048470
 77       0.573457632773
 78      -0.190287882068
 79      -0.054334091325
 80      -0.003192512092
 81       0.000000074269
 82      -0.573458757517
 83       0.190286896400
 84       0.054334058069
 85      -0.003192481606
 86      -0.000000072274
 87       0.573457646994
 88      -0.190287885934
 89       0.054334094305
 90      -0.003192512415
 91       0.000000069659
 92      -0.573458760957
 93       0.190286906007
 94      -0.054334065984
 95      -0.003192476561
 96      -0.000000069599
 Sym=     1a
 Ene= 5.47465959938463E-01
 Spin= Alpha
 Occup= 0.000000
  1      -0.000000000000
  2       0.000000000000
  3      -0.000000000000
  4       0.000000000000
  5       0.000000000000
  6       0.000000000011
  7       0.000000000000
  8       0.000000000000
  9      -0.000000000010
 10      -0.000000000000
 11       0.000000000001
 12      -0.000000000000
 13      -0.000000000000
 14       0.000000000000
 15      -0.000000000000
 16       0.000000000000
 17      -0.000000000000
 18      -0.000000000000
 19       0.000000000000
 20       0.000000000011
 21      -0.000000000000
 22       0.000000000000
 23      -0.000000000010
 24      -0.000000000000
 25      -0.000000000001
 26       0.000000000000
 27      -0.000000000000
 28      -0.000000000000
 29       0.000000000000
 30       0.000000000000
 31       0.000000000000
 32       0.000000000000
 33       0.000000000000
 34       0.000000000000
 35       0.000000000000
 36      -0.000000000000
 37      -0.000000000000
 38       0.000000000000
 39       0.000000000000
 40       0.000000000000
 41      -0.000000000000
 42       0.000000000000
 43       0.000000000000
 44       0.000000000000
 45       0.000000000000
 46       0.000000000000
 47      -0.000000000000
 48       0.000000000000
 49      -0.000006155918
 50       0.000054472553
 51      -0.000112235027
 52       0.000003502239
 53      -0.000000000429
 54      -0.692498749440
 55       0.000024863261
 56       0.000000002365
 57       0.623394739123
 58      -0.000005535619
 59      -0.051888307660
 60       0.000000000093
 61      -0.000001600746
 62      -0.000000000471
 63      -0.000006155941
 64       0.000054474884
 65      -0.000112251690
 66      -0.000003501585
 67       0.000000000129
 68      -0.692498822753
 69      -0.000024861944
 70      -0.000000002066
 71       0.623394862108
 72      -0.000005535753
 73       0.051888305985
 74       0.000000000032
 75      -0.000001600896
 76       0.000000000150
 77       0.000031240779
 78       0.000021306254
 79      -0.000000030523
 80       0.000001319454
 81      -0.008422459226
 82       0.000031239636
 83       0.000021311080
 84      -0.000000029889
 85      -0.000001318311
 86      -0.008422460568
 87       0.000031243769
 88       0.000021310723
 89       0.000000030298
 90       0.000001318866
 91      -0.008422462084
 92       0.000031241582
 93       0.000021310195
 94       0.000000030172
 95      -0.000001318889
 96      -0.008422462386
 Sym=     1a
 Ene= 5.47465961892792E-01
 Spin= Alpha
 Occup= 0.000000
  1      -0.000006154695
  2       0.000054463428
  3      -0.000112225443
  4       0.000003500289
  5      -0.000000000285
  6       0.692498784198
  7       0.000024856938
  8       0.000000000724
  9      -0.623394796141
 10      -0.000005534530
 11       0.051888306479
 12      -0.000000000092
 13      -0.000001600502
 14       0.000000000007
 15      -0.000006154952
 16       0.000054464175
 17      -0.000112221102
 18      -0.000003500827
 19       0.000000000312
 20       0.692498789266
 21      -0.000024859731
 22      -0.000000000720
 23      -0.623394804617
 24      -0.000005534362
 25      -0.051888306420
 26      -0.000000000050
 27      -0.000001600296
 28       0.000000000055
 29       0.000031236235
 30       0.000021304977
 31      -0.000000030314
 32       0.000001318461
 33       0.008422461328
 34       0.000031236112
 35       0.000021305958
 36      -0.000000030361
 37      -0.000001318525
 38       0.008422461364
 39       0.000031235221
 40       0.000021306903
 41       0.000000030179
 42       0.000001318436
 43       0.008422461524
 44       0.000031234457
 45       0.000021306571
 46       0.000000030235
 47      -0.000001318415
 48       0.008422461648
 49       0.000000000000
 50      -0.000000000000
 51      -0.000000000000
 52       0.000000000000
 53      -0.000000000000
 54       0.000000000011
 55      -0.000000000000
 56       0.000000000000
 57      -0.000000000010
 58       0.000000000000
 59       0.000000000001
 60       0.000000000000
 61       0.000000000000
 62      -0.000000000000
 63       0.000000000000
 64      -0.000000000000
 65       0.000000000000
 66       0.000000000000
 67       0.000000000000
 68       0.000000000011
 69      -0.000000000000
 70       0.000000000000
 71      -0.000000000010
 72      -0.000000000000
 73      -0.000000000001
 74      -0.000000000000
 75       0.000000000000
 76      -0.000000000000
 77      -0.000000000000
 78      -0.000000000000
 79       0.000000000000
 80       0.000000000000
 81       0.000000000000
 82      -0.000000000000
 83      -0.000000000000
 84       0.000000000000
 85       0.000000000000
 86       0.000000000000
 87      -0.000000000000
 88      -0.000000000000
 89      -0.000000000000
 90      -0.000000000000
 91       0.000000000000
 92      -0.000000000000
 93      -0.000000000000
 94       0.000000000000
 95      -0.000000000000
 96       0.000000000000
 Sym=     1a
 Ene= 6.12470211931134E-01
 Spin= Alpha
 Occup= 0.000000
  1       0.029461331756
  2       0.340617467162
  3      -3.540029792878
  4      -0.188799364418
  5      -0.000000002471
  6      -0.000099453317
  7      -0.688611643677
  8       0.000000003316
  9       0.000145372480
 10      -0.079682320035
 11       0.000003084899
 12       0.000000000036
 13      -0.019801160377
 14      -0.000000000517
 15      -0.029461332213
 16      -0.340617462306
 17       3.540029774975
 18      -0.188799362735
 19       0.000000000104
 20       0.000099452181
 21      -0.688611654628
 22       0.000000002788
 23      -0.000145371371
 24       0.079682320286
 25       0.000003085015
 26      -0.000000000016
 27       0.019801159913
 28      -0.000000000288
 29       0.605798017793
 30       0.150571703491
 31      -0.000056618587
 32       0.039326821339
 33      -0.000003407290
 34       0.605798021334
 35       0.150571710104
 36      -0.000056617130
 37      -0.039326819069
 38      -0.000003407966
 39      -0.605798022407
 40      -0.150571699860
 41      -0.000056618757
 42      -0.039326819829
 43       0.000003408694
 44      -0.605798016785
 45      -0.150571700971
 46      -0.000056618334
 47       0.039326819911
 48       0.000003408709
 49       0.000000000001
 50       0.000000000010
 51      -0.000000000109
 52      -0.000000000006
 53      -0.000000000000
 54       0.000000000000
 55      -0.000000000021
 56       0.000000000000
 57      -0.000000000000
 58      -0.000000000002
 59      -0.000000000000
 60       0.000000000000
 61      -0.000000000001
 62       0.000000000000
 63      -0.000000000001
 64      -0.000000000010
 65       0.000000000109
 66      -0.000000000006
 67       0.000000000000
 68      -0.000000000000
 69      -0.000000000021
 70      -0.000000000000
 71       0.000000000000
 72       0.000000000002
 73      -0.000000000000
 74       0.000000000000
 75       0.000000000001
 76      -0.000000000000
 77       0.000000000019
 78       0.000000000005
 79      -0.000000000000
 80       0.000000000001
 81       0.000000000000
 82       0.000000000019
 83       0.000000000005
 84      -0.000000000000
 85      -0.000000000001
 86       0.000000000000
 87      -0.000000000019
 88      -0.000000000005
 89      -0.000000000000
 90      -0.000000000001
 91      -0.000000000000
 92      -0.000000000019
 93      -0.000000000005
 94      -0.000000000000
 95       0.000000000001
 96      -0.000000000000
 Sym=     1a
 Ene= 6.12470212733752E-01
 Spin= Alpha
 Occup= 0.000000
  1       0.000000000001
  2       0.000000000010
  3      -0.000000000109
  4      -0.000000000006
  5       0.000000000000
  6      -0.000000000000
  7      -0.000000000021
  8      -0.000000000000
  9       0.000000000000
 10      -0.000000000002
 11       0.000000000000
 12       0.000000000000
 13      -0.000000000001
 14      -0.000000000000
 15      -0.000000000001
 16      -0.000000000010
 17       0.000000000109
 18      -0.000000000006
 19       0.000000000000
 20       0.000000000000
 21      -0.000000000021
 22      -0.000000000000
 23      -0.000000000000
 24       0.000000000002
 25       0.000000000000
 26       0.000000000000
 27       0.000000000001
 28       0.000000000000
 29       0.000000000019
 30       0.000000000005
 31      -0.000000000000
 32       0.000000000001
 33      -0.000000000000
 34       0.000000000019
 35       0.000000000005
 36      -0.000000000000
 37      -0.000000000001
 38      -0.000000000000
 39      -0.000000000019
 40      -0.000000000005
 41      -0.000000000000
 42      -0.000000000001
 43       0.000000000000
 44      -0.000000000019
 45      -0.000000000005
 46      -0.000000000000
 47       0.000000000001
 48       0.000000000000
 49      -0.029461327667
 50      -0.340617485838
 51       3.540029804486
 52       0.188799381219
 53      -0.000000001948
 54      -0.000099462210
 55       0.688611586227
 56       0.000000007922
 57       0.000145385014
 58       0.079682321338
 59       0.000003085430
 60       0.000000000060
 61       0.019801160907
 62       0.000000000746
 63       0.029461337658
 64       0.340617416617
 65      -3.540029618934
 66       0.188799359519
 67      -0.000000000296
 68       0.000099465178
 69       0.688611661938
 70      -0.000000003455
 71      -0.000145387896
 72      -0.079682320066
 73       0.000003085451
 74      -0.000000000080
 75      -0.019801158736
 76       0.000000000423
 77      -0.605798044080
 78      -0.150571731869
 79       0.000056616026
 80      -0.039326819386
 81      -0.000003406724
 82      -0.605798028172
 83      -0.150571724322
 84       0.000056616062
 85       0.039326817545
 86      -0.000003409959
 87       0.605798013349
 88       0.150571666883
 89       0.000056619325
 90       0.039326820205
 91       0.000003409091
 92       0.605798004408
 93       0.150571667851
 94       0.000056619602
 95      -0.039326820080
 96       0.000003409239
 Sym=     1a
 Ene= 6.36069826375796E-01
 Spin= Alpha
 Occup= 0.000000
  1      -0.000000000000
  2       0.000000000000
  3      -0.000000000000
  4      -0.000000000000
  5       0.000000000000
  6       0.000000000001
  7      -0.000000000000
  8      -0.000000000000
  9      -0.000000000002
 10       0.000000000000
 11      -0.000000000000
 12      -0.000000000000
 13       0.000000000000
 14      -0.000000000000
 15      -0.000000000000
 16       0.000000000000
 17       0.000000000000
 18       0.000000000000
 19       0.000000000000
 20      -0.000000000001
 21      -0.000000000000
 22      -0.000000000000
 23       0.000000000002
 24       0.000000000000
 25      -0.000000000000
 26      -0.000000000000
 27       0.000000000000
 28       0.000000000000
 29       0.000000000000
 30       0.000000000000
 31      -0.000000000000
 32      -0.000000000000
 33       0.000000000000
 34      -0.000000000000
 35       0.000000000000
 36       0.000000000000
 37       0.000000000000
 38       0.000000000000
 39      -0.000000000000
 40       0.000000000000
 41       0.000000000000
 42      -0.000000000000
 43      -0.000000000000
 44      -0.000000000000
 45       0.000000000000
 46      -0.000000000000
 47       0.000000000000
 48      -0.000000000000
 49       0.000008525916
 50       0.000013332211
 51      -0.000339624759
 52      -0.000025926064
 53      -0.000000000901
 54      -0.752645384726
 55      -0.000076017163
 56       0.000000000639
 57       1.141236190866
 58      -0.000012332171
 59       0.020565059381
 60       0.000000000161
 61      -0.000002147856
 62       0.000000000508
 63      -0.000008525316
 64      -0.000013333752
 65       0.000339626928
 66      -0.000025928805
 67       0.000000000645
 68       0.752645314723
 69      -0.000076017504
 70      -0.000000001563
 71      -1.141236125924
 72       0.000012331314
 73       0.020565066156
 74       0.000000000213
 75       0.000002147276
 76      -0.000000000037
 77       0.000081530334
 78      -0.000009458926
 79      -0.000001185870
 80       0.000006148396
 81      -0.018907568474
 82       0.000081530146
 83      -0.000009458586
 84      -0.000001186445
 85      -0.000006149752
 86      -0.018907566650
 87      -0.000081525658
 88       0.000009455516
 89      -0.000001185810
 90      -0.000006148326
 91       0.018907563023
 92      -0.000081526514
 93       0.000009453426
 94      -0.000001185687
 95       0.000006148274
 96       0.018907562956
 Sym=     1a
 Ene= 6.36069827910998E-01
 Spin= Alpha
 Occup= 0.000000
  1       0.000008524626
  2       0.000013333542
  3      -0.000339606703
  4      -0.000025924979
  5       0.000000000524
  6       0.752645352556
  7      -0.000076014412
  8      -0.000000001205
  9      -1.141236159212
 10      -0.000012330254
 11      -0.020565063165
 12      -0.000000000064
 13      -0.000002146978
 14      -0.000000000043
 15      -0.000008524584
 16      -0.000013333303
 17       0.000339606259
 18      -0.000025925280
 19       0.000000000266
 20      -0.752645348159
 21      -0.000076013770
 22       0.000000000362
 23       1.141236154314
 24       0.000012330357
 25      -0.020565063492
 26      -0.000000000061
 27       0.000002147040
 28      -0.000000000082
 29       0.000081518748
 30      -0.000009452472
 31      -0.000001185501
 32       0.000006147867
 33       0.018907564592
 34       0.000081518914
 35      -0.000009453627
 36      -0.000001185071
 37      -0.000006147765
 38       0.018907564605
 39      -0.000081519235
 40       0.000009453711
 41      -0.000001185667
 42      -0.000006147832
 43      -0.018907563837
 44      -0.000081518744
 45       0.000009453000
 46      -0.000001185669
 47       0.000006147728
 48      -0.018907563843
 49       0.000000000000
 50      -0.000000000000
 51      -0.000000000000
 52      -0.000000000000
 53       0.000000000000
 54       0.000000000001
 55       0.000000000000
 56       0.000000000000
 57      -0.000000000002
 58       0.000000000000
 59      -0.000000000000
 60      -0.000000000000
 61       0.000000000000
 62      -0.000000000000
 63       0.000000000000
 64       0.000000000000
 65      -0.000000000000
 66      -0.000000000000
 67      -0.000000000000
 68      -0.000000000001
 69       0.000000000000
 70      -0.000000000000
 71       0.000000000002
 72      -0.000000000000
 73      -0.000000000000
 74       0.000000000000
 75       0.000000000000
 76      -0.000000000000
 77      -0.000000000000
 78       0.000000000000
 79      -0.000000000000
 80      -0.000000000000
 81       0.000000000000
 82       0.000000000000
 83       0.000000000000
 84       0.000000000000
 85       0.000000000000
 86       0.000000000000
 87       0.000000000000
 88       0.000000000000
 89      -0.000000000000
 90      -0.000000000000
 91      -0.000000000000
 92       0.000000000000
 93      -0.000000000000
 94       0.000000000000
 95      -0.000000000000
 96      -0.000000000000
 Sym=     1a
 Ene= 7.16340950263881E-01
 Spin= Alpha
 Occup= 0.000000
  1       0.000000000007
  2      -0.000000000039
  3       0.000000000084
  4       0.000000000018
  5      -0.000000000000
  6      -0.000000000000
  7      -0.000000000026
  8       0.000000000000
  9       0.000000000000
 10      -0.000000000003
 11      -0.000000000000
 12       0.000000000000
 13      -0.000000000003
 14      -0.000000000000
 15       0.000000000007
 16      -0.000000000039
 17       0.000000000084
 18      -0.000000000018
 19      -0.000000000000
 20       0.000000000000
 21       0.000000000026
 22       0.000000000000
 23      -0.000000000000
 24      -0.000000000003
 25       0.000000000000
 26      -0.000000000000
 27      -0.000000000003
 28       0.000000000000
 29       0.000000000019
 30      -0.000000000044
 31      -0.000000000001
 32       0.000000000004
 33      -0.000000000000
 34       0.000000000019
 35      -0.000000000044
 36      -0.000000000001
 37      -0.000000000004
 38       0.000000000000
 39       0.000000000019
 40      -0.000000000044
 41       0.000000000001
 42       0.000000000004
 43       0.000000000000
 44       0.000000000019
 45      -0.000000000044
 46       0.000000000001
 47      -0.000000000004
 48       0.000000000000
 49      -0.161580707525
 50       0.902113699894
 51      -1.915700472779
 52      -0.403336469783
 53       0.000000016152
 54      -0.000003059468
 55       0.603277576727
 56      -0.000000024092
 57       0.000003048470
 58       0.069499591790
 59      -0.000000383898
 60       0.000000000090
 61       0.057140541274
 62       0.000000002694
 63      -0.161580820193
 64       0.902114452157
 65      -1.915703060202
 66       0.403336631744
 67       0.000000028972
 68      -0.000003053978
 69      -0.603277559947
 70      -0.000000058679
 71       0.000003045011
 72       0.069499617233
 73       0.000000383913
 74      -0.000000000250
 75       0.057140558984
 76      -0.000000002971
 77      -0.423897347438
 78       1.006103282499
 79       0.026839345836
 80      -0.102597451345
 81      -0.000000240311
 82      -0.423897337404
 83       1.006103239682
 84       0.026839345777
 85       0.102597447971
 86      -0.000000241803
 87      -0.423897462115
 88       1.006104050766
 89      -0.026839368181
 90      -0.102597499329
 91      -0.000000243099
 92      -0.423897458798
 93       1.006103959734
 94      -0.026839365184
 95       0.102597491465
 96      -0.000000242584
 Sym=     1a
 Ene= 7.16340951519025E-01
 Spin= Alpha
 Occup= 0.000000
  1       0.161580758749
  2      -0.902114040824
  3       1.915701649181
  4       0.403336540630
  5      -0.000000002537
  6      -0.000003058783
  7      -0.603277578337
  8       0.000000008140
  9       0.000003043738
 10      -0.069499601639
 11      -0.000000383468
 12      -0.000000000099
 13      -0.057140548005
 14      -0.000000000605
 15       0.161580772350
 16      -0.902114129664
 17       1.915701935415
 18      -0.403336564663
 19      -0.000000005043
 20      -0.000003058609
 21       0.603277592860
 22       0.000000002660
 23       0.000003044394
 24      -0.069499604714
 25       0.000000383492
 26       0.000000000048
 27      -0.057140551241
 28       0.000000000437
 29       0.423897387135
 30      -1.006103596914
 31      -0.026839354296
 32       0.102597469296
 33      -0.000000243198
 34       0.423897387254
 35      -1.006103588257
 36      -0.026839354483
 37      -0.102597468427
 38      -0.000000242695
 39       0.423897401035
 40      -1.006103687176
 41       0.026839356729
 42       0.102597476296
 43      -0.000000242770
 44       0.423897399887
 45      -1.006103678088
 46       0.026839356635
 47      -0.102597474876
 48      -0.000000243209
 49       0.000000000007
 50      -0.000000000039
 51       0.000000000084
 52       0.000000000018
 53      -0.000000000000
 54      -0.000000000000
 55      -0.000000000026
 56       0.000000000000
 57       0.000000000000
 58      -0.000000000003
 59      -0.000000000000
 60       0.000000000000
 61      -0.000000000003
 62      -0.000000000000
 63       0.000000000007
 64      -0.000000000039
 65       0.000000000084
 66      -0.000000000018
 67       0.000000000000
 68       0.000000000000
 69       0.000000000026
 70      -0.000000000000
 71      -0.000000000000
 72      -0.000000000003
 73       0.000000000000
 74      -0.000000000000
 75      -0.000000000003
 76      -0.000000000000
 77       0.000000000019
 78      -0.000000000044
 79      -0.000000000001
 80       0.000000000004
 81      -0.000000000000
 82       0.000000000019
 83      -0.000000000044
 84      -0.000000000001
 85      -0.000000000004
 86       0.000000000000
 87       0.000000000019
 88      -0.000000000044
 89       0.000000000001
 90       0.000000000004
 91       0.000000000000
 92       0.000000000019
 93      -0.000000000044
 94       0.000000000001
 95      -0.000000000004
 96       0.000000000000
 Sym=     1a
 Ene= 7.34025903795447E-01
 Spin= Alpha
 Occup= 0.000000
  1       0.214341288937
  2      -1.397833895330
  3       4.791010468478
  4       0.225008547680
  5       0.000000048794
  6      -0.000013516381
  7       0.146300724506
  8      -0.000000084289
  9       0.000022440200
 10      -0.054486275278
 11       0.000000172927
 12       0.000000000218
 13      -0.024256786184
 14       0.000000008174
 15      -0.214341277628
 16       1.397833833295
 17      -4.791010332666
 18       0.225008519414
 19       0.000000046341
 20       0.000013517840
 21       0.146300769161
 22      -0.000000097170
 23      -0.000022438099
 24       0.054486271207
 25       0.000000172906
 26       0.000000000003
 27       0.024256781750
 28      -0.000000009055
 29       0.235548446095
 30      -1.331084155471
 31      -0.044502281352
 32       0.083500170694
 33      -0.000000231453
 34       0.235548468776
 35      -1.331084306747
 36      -0.044502287109
 37      -0.083500183049
 38      -0.000000232064
 39      -0.235548446198
 40       1.331084241687
 41      -0.044502285307
 42      -0.083500176741
 43       0.000000231227
 44      -0.235548416938
 45       1.331084079134
 46      -0.044502278550
 47       0.083500163326
 48       0.000000231096
 49       0.000000000001
 50      -0.000000000010
 51       0.000000000033
 52       0.000000000002
 53       0.000000000000
 54       0.000000000000
 55       0.000000000001
 56      -0.000000000000
 57      -0.000000000000
 58      -0.000000000000
 59      -0.000000000000
 60       0.000000000000
 61      -0.000000000000
 62       0.000000000000
 63      -0.000000000001
 64       0.000000000010
 65      -0.000000000033
 66       0.000000000002
 67      -0.000000000000
 68      -0.000000000000
 69       0.000000000001
 70       0.000000000000
 71       0.000000000000
 72       0.000000000000
 73       0.000000000000
 74      -0.000000000000
 75       0.000000000000
 76       0.000000000000
 77       0.000000000002
 78      -0.000000000009
 79      -0.000000000000
 80       0.000000000001
 81       0.000000000000
 82       0.000000000002
 83      -0.000000000009
 84      -0.000000000000
 85      -0.000000000001
 86       0.000000000000
 87      -0.000000000002
 88       0.000000000009
 89      -0.000000000000
 90      -0.000000000001
 91       0.000000000000
 92      -0.000000000002
 93       0.000000000009
 94      -0.000000000000
 95       0.000000000001
 96       0.000000000000
 Sym=     1a
 Ene= 7.34025907798557E-01
 Spin= Alpha
 Occup= 0.000000
  1      -0.000000000001
  2       0.000000000010
  3      -0.000000000033
  4      -0.000000000002
  5      -0.000000000000
  6       0.000000000000
  7      -0.000000000001
  8       0.000000000000
  9      -0.000000000000
 10       0.000000000000
 11      -0.000000000000
 12      -0.000000000000
 13       0.000000000000
 14      -0.000000000000
 15       0.000000000001
 16      -0.000000000010
 17       0.000000000033
 18      -0.000000000002
 19      -0.000000000000
 20      -0.000000000000
 21      -0.000000000001
 22       0.000000000000
 23       0.000000000000
 24      -0.000000000000
 25      -0.000000000000
 26       0.000000000000
 27      -0.000000000000
 28       0.000000000000
 29      -0.000000000002
 30       0.000000000009
 31       0.000000000000
 32      -0.000000000001
 33       0.000000000000
 34      -0.000000000002
 35       0.000000000009
 36       0.000000000000
 37       0.000000000001
 38       0.000000000000
 39       0.000000000002
 40      -0.000000000009
 41       0.000000000000
 42       0.000000000001
 43       0.000000000000
 44       0.000000000002
 45      -0.000000000009
 46       0.000000000000
 47      -0.000000000001
 48      -0.000000000000
 49       0.214341329672
 50      -1.397834121625
 51       4.791010896955
 52       0.225008645414
 53      -0.000000062340
 54       0.000013519396
 55       0.146300563587
 56       0.000000138546
 57      -0.000022445566
 58      -0.054486292351
 59      -0.000000173100
 60       0.000000000014
 61      -0.024256799292
 62      -0.000000011812
 63      -0.214341239233
 64       1.397833618700
 65      -4.791009848798
 66       0.225008421493
 67      -0.000000042590
 68      -0.000013520484
 69       0.146300887258
 70       0.000000059851
 71       0.000022443123
 72       0.054486254614
 73      -0.000000172798
 74       0.000000000692
 75       0.024256767071
 76       0.000000006962
 77       0.235548576882
 78      -1.331084575839
 79      -0.044502294219
 80       0.083500211868
 81       0.000000235955
 82       0.235548534828
 83      -1.331084355127
 84      -0.044502282821
 85      -0.083500188823
 86       0.000000232477
 87      -0.235548320935
 88       1.331083854667
 89      -0.044502273631
 90      -0.083500138502
 91      -0.000000230421
 92      -0.235548328559
 93       1.331083978606
 94      -0.044502275354
 95       0.083500150459
 96      -0.000000231756
 Sym=     1a
 Ene= 7.39406484294069E-01
 Spin= Alpha
 Occup= 0.000000
  1      -0.000000000000
  2      -0.000000000000
  3       0.000000000000
  4      -0.000000000000
  5       0.000000000009
  6       0.000000000000
  7       0.000000000000
  8      -0.000000000016
  9      -0.000000000000
 10       0.000000000000
 11      -0.000000000000
 12      -0.000000000000
 13       0.000000000000
 14       0.000000000002
 15      -0.000000000000
 16       0.000000000000
 17      -0.000000000000
 18       0.000000000000
 19       0.000000000009
 20      -0.000000000000
 21      -0.000000000000
 22      -0.000000000016
 23       0.000000000000
 24       0.000000000000
 25       0.000000000000
 26      -0.000000000000
 27       0.000000000000
 28      -0.000000000002
 29      -0.000000000002
 30       0.000000000014
 31       0.000000000001
 32      -0.000000000001
 33       0.000000000000
 34       0.000000000002
 35      -0.000000000014
 36      -0.000000000001
 37      -0.000000000001
 38       0.000000000000
 39      -0.000000000002
 40       0.000000000014
 41      -0.000000000001
 42      -0.000000000001
 43       0.000000000000
 44       0.000000000002
 45      -0.000000000014
 46       0.000000000001
 47      -0.000000000001
 48       0.000000000000
 49      -0.000000021758
 50       0.000000137479
 51      -0.000000393075
 52      -0.000000029687
 53      -0.682093591201
 54      -0.000000000600
 55       0.000000021961
 56       1.279264536211
 57      -0.000000000800
 58       0.000000006345
 59       0.000000000006
 60       0.000000073293
 61       0.000000004139
 62      -0.117734936882
 63       0.000000010125
 64      -0.000000076383
 65       0.000000288129
 66      -0.000000003792
 67      -0.682093931257
 68      -0.000000000426
 69       0.000000001417
 70       1.279265473904
 71      -0.000000001528
 72      -0.000000001793
 73       0.000000000062
 74       0.000000073455
 75       0.000000000042
 76       0.117734964160
 77       0.163199330760
 78      -1.103053959767
 79      -0.040248449390
 80       0.092750117813
 81       0.000000340914
 82      -0.163199398692
 83       1.103054227787
 84       0.040248457431
 85       0.092750136704
 86      -0.000000339718
 87       0.163199473686
 88      -1.103054781534
 89       0.040248501025
 90       0.092750166561
 91       0.000000339488
 92      -0.163199464870
 93       1.103054629770
 94      -0.040248495813
 95       0.092750159896
 96      -0.000000339288
 Sym=     1a
 Ene= 7.39406485339858E-01
 Spin= Alpha
 Occup= 0.000000
  1      -0.000000014344
  2       0.000000094768
  3      -0.000000335157
  4      -0.000000017104
  5       0.682093747950
  6      -0.000000000313
  7      -0.000000013253
  8      -1.279264970678
  9       0.000000000370
 10       0.000000003365
 11      -0.000000000039
 12       0.000000073486
 13       0.000000001777
 14       0.117734948614
 15       0.000000015529
 16      -0.000000102271
 17       0.000000350563
 18      -0.000000018752
 19       0.682093775905
 20       0.000000000359
 21      -0.000000008387
 22      -1.279265041958
 23      -0.000000000586
 24      -0.000000004027
 25       0.000000000057
 26       0.000000073716
 27      -0.000000002349
 28      -0.117734950820
 29      -0.163199424235
 30       1.103054464781
 31       0.040248477496
 32      -0.092750149288
 33       0.000000339213
 34       0.163199396853
 35      -1.103054283308
 36      -0.040248471154
 37      -0.092750138527
 38      -0.000000339064
 39      -0.163199399689
 40       1.103054323456
 41      -0.040248474827
 42      -0.092750140214
 43       0.000000339590
 44       0.163199437938
 45      -1.103054520204
 46       0.040248481231
 47      -0.092750153166
 48      -0.000000339287
 49       0.000000000000
 50      -0.000000000000
 51       0.000000000000
 52       0.000000000000
 53       0.000000000009
 54       0.000000000000
 55       0.000000000000
 56      -0.000000000016
 57      -0.000000000000
 58      -0.000000000000
 59      -0.000000000000
 60      -0.000000000000
 61      -0.000000000000
 62       0.000000000002
 63      -0.000000000000
 64       0.000000000000
 65      -0.000000000000
 66       0.000000000000
 67       0.000000000009
 68      -0.000000000000
 69       0.000000000000
 70      -0.000000000016
 71       0.000000000000
 72       0.000000000000
 73      -0.000000000000
 74       0.000000000000
 75       0.000000000000
 76      -0.000000000002
 77      -0.000000000002
 78       0.000000000014
 79       0.000000000001
 80      -0.000000000001
 81      -0.000000000000
 82       0.000000000002
 83      -0.000000000014
 84      -0.000000000001
 85      -0.000000000001
 86       0.000000000000
 87      -0.000000000002
 88       0.000000000014
 89      -0.000000000001
 90      -0.000000000001
 91      -0.000000000000
 92       0.000000000002
 93      -0.000000000014
 94       0.000000000001
 95      -0.000000000001
 96      -0.000000000000
 Sym=     1a
 Ene= 7.58821498233696E-01
 Spin= Alpha
 Occup= 0.000000
  1       0.000000000000
  2      -0.000000000000
  3       0.000000000000
  4      -0.000000000000
  5      -0.000000004052
  6      -0.000000000000
  7       0.000000000000
  8       0.000000011041
  9       0.000000000000
 10       0.000000000000
 11       0.000000000000
 12       0.000000000000
 13       0.000000000000
 14      -0.000000000341
 15      -0.000000000000
 16       0.000000000000
 17      -0.000000000000
 18       0.000000000000
 19       0.000000004052
 20      -0.000000000000
 21      -0.000000000000
 22      -0.000000011041
 23       0.000000000000
 24       0.000000000000
 25       0.000000000000
 26      -0.000000000000
 27       0.000000000000
 28      -0.000000000341
 29       0.000000001270
 30      -0.000000007212
 31      -0.000000000565
 32       0.000000000440
 33      -0.000000000000
 34      -0.000000001270
 35       0.000000007212
 36       0.000000000565
 37       0.000000000440
 38       0.000000000000
 39      -0.000000001270
 40       0.000000007212
 41      -0.000000000565
 42      -0.000000000440
 43       0.000000000000
 44       0.000000001270
 45      -0.000000007212
 46       0.000000000565
 47      -0.000000000440
 48      -0.000000000000
 49      -0.000000002337
 50       0.000000017574
 51      -0.000000032683
 52      -0.000000003023
 53      -0.725180550770
 54       0.000000000030
 55       0.000000013141
 56       1.976158268866
 57      -0.000000000428
 58       0.000000001179
 59       0.000000000001
 60      -0.000000092370
 61       0.000000001041
 62      -0.061074670973
 63       0.000000003911
 64      -0.000000030659
 65       0.000000072369
 66      -0.000000004698
 67       0.725180234535
 68      -0.000000000821
 69       0.000000033026
 70      -1.976157684821
 71      -0.000000001310
 72      -0.000000001475
 73      -0.000000000003
 74       0.000000092123
 75      -0.000000001855
 76      -0.061074611257
 77       0.227356933171
 78      -1.290811649178
 79      -0.101039876486
 80       0.078746062187
 81       0.000000457087
 82      -0.227356944964
 83       1.290811688517
 84       0.101039878153
 85       0.078746066073
 86      -0.000000458089
 87      -0.227356845705
 88       1.290811125191
 89      -0.101039855971
 90      -0.078746015777
 91      -0.000000459281
 92       0.227356867038
 93      -1.290811196096
 94       0.101039857525
 95      -0.078746020524
 96       0.000000459298
 Sym=     1a
 Ene= 7.58821499422895E-01
 Spin= Alpha
 Occup= 0.000000
  1       0.000000000781
  2      -0.000000002780
  3       0.000000003578
  4      -0.000000000668
  5       0.725180403868
  6       0.000000000303
  7      -0.000000000043
  8      -1.976158000984
  9       0.000000000033
 10      -0.000000000279
 11       0.000000000027
 12      -0.000000091977
 13       0.000000000053
 14       0.061074642657
 15      -0.000000000660
 16       0.000000001501
 17      -0.000000001821
 18       0.000000000387
 19      -0.725180377909
 20       0.000000000552
 21      -0.000000001391
 22       1.976157954278
 23       0.000000000198
 24       0.000000000333
 25      -0.000000000052
 26       0.000000092018
 27       0.000000000179
 28       0.061074638169
 29      -0.227356902699
 30       1.290811430401
 31       0.101039867001
 32      -0.078746042196
 33       0.000000459621
 34       0.227356902838
 35      -1.290811435104
 36      -0.101039867727
 37      -0.078746043236
 38      -0.000000459749
 39       0.227356894690
 40      -1.290811389549
 41       0.101039865609
 42       0.078746039028
 43      -0.000000459305
 44      -0.227356898219
 45       1.290811395061
 46      -0.101039865992
 47       0.078746039865
 48       0.000000459459
 49      -0.000000000000
 50       0.000000000000
 51      -0.000000000000
 52      -0.000000000000
 53      -0.000000004052
 54       0.000000000000
 55      -0.000000000000
 56       0.000000011041
 57      -0.000000000000
 58      -0.000000000000
 59       0.000000000000
 60      -0.000000000000
 61      -0.000000000000
 62      -0.000000000341
 63      -0.000000000000
 64      -0.000000000000
 65       0.000000000000
 66      -0.000000000000
 67       0.000000004052
 68       0.000000000000
 69      -0.000000000000
 70      -0.000000011041
 71       0.000000000000
 72      -0.000000000000
 73       0.000000000000
 74       0.000000000000
 75       0.000000000000
 76      -0.000000000341
 77       0.000000001270
 78      -0.000000007212
 79      -0.000000000565
 80       0.000000000440
 81       0.000000000000
 82      -0.000000001270
 83       0.000000007212
 84       0.000000000565
 85       0.000000000440
 86      -0.000000000000
 87      -0.000000001270
 88       0.000000007212
 89      -0.000000000565
 90      -0.000000000440
 91      -0.000000000000
 92       0.000000001270
 93      -0.000000007212
 94       0.000000000565
 95      -0.000000000440
 96       0.000000000000
 Sym=     1a
 Ene= 8.74833030832445E-01
 Spin= Alpha
 Occup= 0.000000
  1       0.000000007433
  2      -0.000000043171
  3       0.000000303517
  4      -0.000000049280
  5       0.000000000000
  6      -0.000000000000
  7       0.000000176415
  8      -0.000000000000
  9       0.000000000000
 10      -0.000000002874
 11       0.000000000000
 12      -0.000000000000
 13       0.000000008991
 14       0.000000000000
 15      -0.000000007433
 16       0.000000043171
 17      -0.000000303517
 18      -0.000000049280
 19       0.000000000000
 20       0.000000000000
 21       0.000000176415
 22      -0.000000000000
 23      -0.000000000000
 24       0.000000002874
 25       0.000000000000
 26      -0.000000000000
 27      -0.000000008991
 28      -0.000000000000
 29      -0.000000005905
 30       0.000000007547
 31      -0.000000002925
 32      -0.000000003316
 33       0.000000000000
 34      -0.000000005905
 35       0.000000007547
 36      -0.000000002925
 37       0.000000003316
 38       0.000000000000
 39       0.000000005905
 40      -0.000000007547
 41      -0.000000002925
 42       0.000000003316
 43      -0.000000000000
 44       0.000000005905
 45      -0.000000007547
 46      -0.000000002925
 47      -0.000000003316
 48      -0.000000000000
 49      -0.123473483308
 50       0.717171462636
 51      -5.042179869925
 52       0.818665327164
 53      -0.000000004732
 54      -0.000004393671
 55      -2.930705016886
 56       0.000000004738
 57       0.000007512043
 58       0.047739690917
 59       0.000000211872
 60      -0.000000000277
 61      -0.149358175103
 62       0.000000000173
 63       0.123473489173
 64      -0.717171493151
 65       5.042179935469
 66       0.818665307662
 67      -0.000000000227
 68       0.000004393325
 69      -2.930704995113
 70       0.000000002084
 71      -0.000007511532
 72      -0.047739695824
 73       0.000000211034
 74      -0.000000000948
 75       0.149358176527
 76       0.000000000504
 77       0.098104327421
 78      -0.125372353516
 79       0.048592595526
 80       0.055089903011
 81       0.000000253087
 82       0.098104324129
 83      -0.125372347518
 84       0.048592595573
 85      -0.055089905599
 86       0.000000255434
 87      -0.098104317747
 88       0.125372316358
 89       0.048592598328
 90      -0.055089898575
 91      -0.000000256936
 92      -0.098104310409
 93       0.125372317760
 94       0.048592598326
 95       0.055089897652
 96      -0.000000254884
 Sym=     1a
 Ene= 8.74833033112877E-01
 Spin= Alpha
 Occup= 0.000000
  1       0.123473484441
  2      -0.717171465880
  3       5.042179856745
  4      -0.818665322203
  5      -0.000000000855
  6      -0.000004392535
  7       2.930704995323
  8       0.000000004980
  9       0.000007511487
 10      -0.047739694426
 11       0.000000211159
 12       0.000000000220
 13       0.149358176548
 14      -0.000000000174
 15      -0.123473486229
 16       0.717171476046
 17      -5.042179877202
 18      -0.818665318702
 19      -0.000000001821
 20       0.000004393414
 21       2.930704990595
 22      -0.000000002213
 23      -0.000007510650
 24       0.047739694922
 25       0.000000211055
 26       0.000000000152
 27      -0.149358176366
 28      -0.000000000279
 29      -0.098104315720
 30       0.125372335494
 31      -0.048592598251
 32      -0.055089899993
 33       0.000000255458
 34      -0.098104317202
 35       0.125372342448
 36      -0.048592598375
 37       0.055089900715
 38       0.000000255064
 39       0.098104313183
 40      -0.125372328357
 41      -0.048592598773
 42       0.055089899564
 43      -0.000000255414
 44       0.098104311623
 45      -0.125372328979
 46      -0.048592598086
 47      -0.055089899031
 48      -0.000000255811
 49       0.000000007433
 50      -0.000000043171
 51       0.000000303517
 52      -0.000000049280
 53       0.000000000000
 54       0.000000000000
 55       0.000000176415
 56      -0.000000000000
 57      -0.000000000000
 58      -0.000000002874
 59      -0.000000000000
 60       0.000000000000
 61       0.000000008991
 62      -0.000000000000
 63      -0.000000007433
 64       0.000000043171
 65      -0.000000303517
 66      -0.000000049280
 67       0.000000000000
 68      -0.000000000000
 69       0.000000176415
 70       0.000000000000
 71       0.000000000000
 72       0.000000002874
 73      -0.000000000000
 74       0.000000000000
 75      -0.000000008991
 76       0.000000000000
 77      -0.000000005905
 78       0.000000007547
 79      -0.000000002925
 80      -0.000000003316
 81      -0.000000000000
 82      -0.000000005905
 83       0.000000007547
 84      -0.000000002925
 85       0.000000003316
 86      -0.000000000000
 87       0.000000005905
 88      -0.000000007547
 89      -0.000000002925
 90       0.000000003316
 91       0.000000000000
 92       0.000000005905
 93      -0.000000007547
 94      -0.000000002925
 95      -0.000000003316
 96       0.000000000000
 Sym=     1a
 Ene= 1.11835898539835E+00
 Spin= Alpha
 Occup= 0.000000
  1       0.000000000000
  2      -0.000000000000
  3       0.000000000000
  4       0.000000000000
  5       0.000000001425
  6      -0.000000000000
  7      -0.000000000000
  8      -0.000000027985
  9       0.000000000000
 10       0.000000000000
 11      -0.000000000000
 12       0.000000000000
 13      -0.000000000000
 14      -0.000000000983
 15      -0.000000000000
 16       0.000000000000
 17      -0.000000000000
 18       0.000000000000
 19      -0.000000001425
 20      -0.000000000000
 21      -0.000000000000
 22       0.000000027985
 23      -0.000000000000
 24      -0.000000000000
 25       0.000000000000
 26      -0.000000000000
 27       0.000000000000
 28      -0.000000000983
 29       0.000000006752
 30       0.000000008621
 31      -0.000000001038
 32      -0.000000000516
 33       0.000000000000
 34      -0.000000006752
 35      -0.000000008621
 36       0.000000001038
 37      -0.000000000516
 38      -0.000000000000
 39      -0.000000006752
 40      -0.000000008621
 41      -0.000000001038
 42       0.000000000516
 43      -0.000000000000
 44       0.000000006752
 45       0.000000008621
 46       0.000000001038
 47       0.000000000516
 48       0.000000000000
 49       0.000000000194
 50      -0.000000003385
 51       0.000000011052
 52       0.000000001363
 53       0.162694714978
 54       0.000000000515
 55       0.000000004263
 56      -3.196105896744
 57       0.000000000472
 58       0.000000000948
 59      -0.000000000230
 60      -0.000000952635
 61       0.000000000841
 62      -0.112268356551
 63      -0.000000000289
 64       0.000000001409
 65      -0.000000011522
 66      -0.000000000892
 67      -0.162694708243
 68       0.000000000903
 69       0.000000003500
 70       3.196105884337
 71       0.000000000745
 72      -0.000000000602
 73       0.000000000207
 74       0.000000951629
 75       0.000000000020
 76      -0.112268355522
 77       0.771138857665
 78       0.984599720661
 79      -0.118536218094
 80      -0.058955858096
 81      -0.000001292353
 82      -0.771138862719
 83      -0.984599720960
 84       0.118536220347
 85      -0.058955853594
 86       0.000001293969
 87      -0.771138855084
 88      -0.984599717461
 89      -0.118536219205
 90       0.058955860060
 91       0.000001291122
 92       0.771138856777
 93       0.984599718745
 94       0.118536218419
 95       0.058955860109
 96      -0.000001291089
 Sym=     1a
 Ene= 1.11835898577237E+00
 Spin= Alpha
 Occup= 0.000000
  1       0.000000000005
  2       0.000000001896
  3      -0.000000005266
  4       0.000000000230
  5      -0.162694710486
  6       0.000000000264
  7       0.000000000193
  8       3.196105885799
  9      -0.000000000604
 10      -0.000000000279
 11       0.000000000143
 12      -0.000000950789
 13       0.000000000059
 14       0.112268355031
 15       0.000000000016
 16      -0.000000001268
 17       0.000000005398
 18      -0.000000000154
 19       0.162694710723
 20       0.000000000352
 21      -0.000000000511
 22      -3.196105884995
 23       0.000000001358
 24       0.000000000083
 25      -0.000000000244
 26       0.000000951152
 27       0.000000000151
 28       0.112268355328
 29      -0.771138863202
 30      -0.984599719433
 31       0.118536218813
 32       0.058955862066
 33      -0.000001288869
 34       0.771138860473
 35       0.984599721281
 36      -0.118536219003
 37       0.058955860103
 38       0.000001289759
 39       0.771138857184
 40       0.984599719027
 41       0.118536218932
 42      -0.058955860309
 43       0.000001289911
 44      -0.771138860282
 45      -0.984599720414
 46      -0.118536219247
 47      -0.058955859593
 48      -0.000001290484
 49       0.000000000000
 50      -0.000000000000
 51      -0.000000000000
 52      -0.000000000000
 53       0.000000001425
 54      -0.000000000000
 55      -0.000000000000
 56      -0.000000027985
 57      -0.000000000000
 58       0.000000000000
 59      -0.000000000000
 60      -0.000000000000
 61      -0.000000000000
 62      -0.000000000983
 63      -0.000000000000
 64       0.000000000000
 65       0.000000000000
 66       0.000000000000
 67      -0.000000001425
 68       0.000000000000
 69      -0.000000000000
 70       0.000000027985
 71       0.000000000000
 72      -0.000000000000
 73      -0.000000000000
 74       0.000000000000
 75       0.000000000000
 76      -0.000000000983
 77       0.000000006752
 78       0.000000008621
 79      -0.000000001038
 80      -0.000000000516
 81      -0.000000000000
 82      -0.000000006752
 83      -0.000000008621
 84       0.000000001038
 85      -0.000000000516
 86       0.000000000000
 87      -0.000000006752
 88      -0.000000008621
 89      -0.000000001038
 90       0.000000000516
 91       0.000000000000
 92       0.000000006752
 93       0.000000008621
 94       0.000000001038
 95       0.000000000516
 96      -0.000000000000
 Sym=     1a
 Ene= 1.24403757429816E+00
 Spin= Alpha
 Occup= 0.000000
  1      -0.000000000440
  2       0.000000002715
  3      -0.000000000575
  4       0.000000000165
  5      -0.000000280171
  6       0.000000000329
  7       0.000000000474
  8       0.000000558724
  9       0.000000001335
 10       0.000000000008
 11       0.000000001228
 12       0.335089154848
 13      -0.000000000136
 14       0.000000053584
 15       0.000000000140
 16      -0.000000000689
 17       0.000000000775
 18       0.000000001187
 19      -0.000000280819
 20      -0.000000000235
 21       0.000000000725
 22       0.000000571984
 23      -0.000000000255
 24       0.000000000239
 25      -0.000000001317
 26       0.335089157582
 27      -0.000000000417
 28      -0.000000053988
 29       0.000000357031
 30      -0.000000343146
 31       0.000000142568
 32       0.000000209990
 33       0.348028970174
 34      -0.000000358222
 35       0.000000343565
 36      -0.000000144404
 37       0.000000208491
 38      -0.348028974924
 39       0.000000353982
 40      -0.000000347715
 41      -0.000000142333
 42       0.000000208111
 43       0.348028975476
 44      -0.000000353448
 45       0.000000346756
 46       0.000000142087
 47       0.000000207387
 48      -0.348028976710
 49       0.000000000000
 50       0.000000000000
 51      -0.000000000000
 52       0.000000000000
 53       0.000000000000
 54      -0.000000000000
 55      -0.000000000000
 56      -0.000000000000
 57       0.000000000000
 58       0.000000000000
 59       0.000000000000
 60       0.000000020907
 61      -0.000000000000
 62      -0.000000000000
 63       0.000000000000
 64      -0.000000000000
 65       0.000000000000
 66       0.000000000000
 67       0.000000000000
 68      -0.000000000000
 69      -0.000000000000
 70      -0.000000000000
 71      -0.000000000000
 72      -0.000000000000
 73       0.000000000000
 74       0.000000020907
 75      -0.000000000000
 76       0.000000000000
 77      -0.000000000000
 78       0.000000000000
 79      -0.000000000000
 80      -0.000000000000
 81       0.000000021715
 82       0.000000000000
 83      -0.000000000000
 84       0.000000000000
 85      -0.000000000000
 86      -0.000000021715
 87      -0.000000000000
 88       0.000000000000
 89       0.000000000000
 90      -0.000000000000
 91       0.000000021715
 92       0.000000000000
 93      -0.000000000000
 94      -0.000000000000
 95      -0.000000000000
 96      -0.000000021715
 Sym=     1a
 Ene= 1.24403758002467E+00
 Spin= Alpha
 Occup= 0.000000
  1      -0.000000000000
  2      -0.000000000000
  3       0.000000000000
  4       0.000000000000
  5       0.000000000000
  6      -0.000000000000
  7       0.000000000000
  8      -0.000000000000
  9       0.000000000000
 10      -0.000000000000
 11       0.000000000000
 12      -0.000000020907
 13       0.000000000000
 14      -0.000000000000
 15       0.000000000000
 16      -0.000000000000
 17      -0.000000000000
 18       0.000000000000
 19       0.000000000000
 20       0.000000000000
 21       0.000000000000
 22      -0.000000000000
 23      -0.000000000000
 24      -0.000000000000
 25      -0.000000000000
 26      -0.000000020907
 27      -0.000000000000
 28       0.000000000000
 29      -0.000000000000
 30       0.000000000000
 31      -0.000000000000
 32      -0.000000000000
 33      -0.000000021715
 34       0.000000000000
 35      -0.000000000000
 36       0.000000000000
 37      -0.000000000000
 38       0.000000021715
 39      -0.000000000000
 40       0.000000000000
 41       0.000000000000
 42      -0.000000000000
 43      -0.000000021715
 44       0.000000000000
 45      -0.000000000000
 46      -0.000000000000
 47      -0.000000000000
 48       0.000000021715
 49       0.000000000100
 50      -0.000000002458
 51      -0.000000018920
 52       0.000000001786
 53       0.000000280878
 54      -0.000000002311
 55      -0.000000006075
 56      -0.000000566678
 57       0.000000001253
 58       0.000000000008
 59      -0.000000001221
 60       0.335089138535
 61      -0.000000000069
 62      -0.000000054585
 63      -0.000000000882
 64      -0.000000005155
 65       0.000000031969
 66       0.000000005456
 67       0.000000273270
 68      -0.000000004647
 69      -0.000000003869
 70      -0.000000557896
 71      -0.000000008024
 72      -0.000000001323
 73       0.000000001208
 74       0.335089182559
 75       0.000000000576
 76       0.000000053660
 77      -0.000000353635
 78       0.000000348038
 79      -0.000000143856
 80      -0.000000213346
 81       0.348028934149
 82       0.000000356901
 83      -0.000000343682
 84       0.000000145303
 85      -0.000000205955
 86      -0.348028939749
 87      -0.000000365908
 88       0.000000336464
 89       0.000000143958
 90      -0.000000210335
 91       0.348029008137
 92       0.000000369027
 93      -0.000000343903
 94      -0.000000143514
 95      -0.000000209586
 96      -0.348029004187
 Sym=     1a
 Ene= 1.30754558971943E+00
 Spin= Alpha
 Occup= 0.000000
  1       0.000000000000
  2      -0.000000000000
  3       0.000000000000
  4       0.000000000000
  5       0.000000000000
  6       0.000000000000
  7      -0.000000000000
  8      -0.000000000000
  9      -0.000000000000
 10      -0.000000000000
 11      -0.000000000000
 12      -0.000000000075
 13       0.000000000000
 14      -0.000000000000
 15       0.000000000000
 16      -0.000000000000
 17       0.000000000000
 18      -0.000000000000
 19       0.000000000000
 20      -0.000000000000
 21       0.000000000000
 22       0.000000000000
 23      -0.000000000000
 24      -0.000000000000
 25       0.000000000000
 26       0.000000000075
 27       0.000000000000
 28      -0.000000000000
 29       0.000000000000
 30       0.000000000000
 31      -0.000000000000
 32      -0.000000000000
 33      -0.000000000112
 34      -0.000000000000
 35      -0.000000000000
 36       0.000000000000
 37      -0.000000000000
 38       0.000000000112
 39      -0.000000000000
 40      -0.000000000000
 41      -0.000000000000
 42      -0.000000000000
 43       0.000000000112
 44       0.000000000000
 45      -0.000000000000
 46       0.000000000000
 47       0.000000000000
 48      -0.000000000112
 49       0.000000000648
 50      -0.000000000235
 51      -0.000000001013
 52      -0.000000003816
 53       0.000000842810
 54      -0.000000002111
 55      -0.000000006638
 56      -0.000009864645
 57      -0.000000011880
 58      -0.000000001469
 59      -0.000000020540
 60       0.266561363006
 61      -0.000000000451
 62      -0.000000416275
 63      -0.000000001724
 64      -0.000000001610
 65       0.000000022707
 66       0.000000003793
 67      -0.000000850322
 68      -0.000000000712
 69       0.000000001192
 70       0.000009866644
 71      -0.000000009268
 72      -0.000000000666
 73       0.000000020400
 74      -0.266561310093
 75      -0.000000000755
 76      -0.000000415999
 77       0.000001615377
 78       0.000003313276
 79      -0.000000743581
 80      -0.000000612592
 81       0.396186564540
 82      -0.000001619197
 83      -0.000003318666
 84       0.000000742643
 85      -0.000000618377
 86      -0.396186522550
 87      -0.000001625540
 88      -0.000003321334
 89      -0.000000744544
 90       0.000000613593
 91      -0.396186467493
 92       0.000001628510
 93       0.000003315895
 94       0.000000743454
 95       0.000000614216
 96       0.396186493537
 Sym=     1a
 Ene= 1.30754559622572E+00
 Spin= Alpha
 Occup= 0.000000
  1      -0.000000000280
  2       0.000000001820
  3       0.000000000380
  4      -0.000000000391
  5       0.000000842990
  6       0.000000000175
  7       0.000000000609
  8      -0.000009844231
  9       0.000000001563
 10      -0.000000000168
 11       0.000000001002
 12      -0.266561339620
 13       0.000000000113
 14      -0.000000415579
 15       0.000000000026
 16      -0.000000000116
 17      -0.000000002098
 18       0.000000000113
 19      -0.000000842508
 20      -0.000000000448
 21      -0.000000000190
 22       0.000009843151
 23      -0.000000000846
 24       0.000000000508
 25      -0.000000000783
 26       0.266561336329
 27      -0.000000000387
 28      -0.000000415327
 29       0.000001610735
 30       0.000003308669
 31      -0.000000745145
 32      -0.000000614104
 33      -0.396186515065
 34      -0.000001611653
 35      -0.000003308858
 36       0.000000743424
 37      -0.000000615670
 38       0.396186510666
 39      -0.000001610633
 40      -0.000003307903
 41      -0.000000745217
 42       0.000000615955
 43       0.396186509855
 44       0.000001609303
 45       0.000003309732
 46       0.000000745123
 47       0.000000616567
 48      -0.396186509650
 49       0.000000000000
 50      -0.000000000000
 51       0.000000000000
 52       0.000000000000
 53      -0.000000000000
 54       0.000000000000
 55      -0.000000000000
 56       0.000000000000
 57      -0.000000000000
 58       0.000000000000
 59      -0.000000000000
 60      -0.000000000075
 61      -0.000000000000
 62      -0.000000000000
 63       0.000000000000
 64       0.000000000000
 65      -0.000000000000
 66      -0.000000000000
 67      -0.000000000000
 68       0.000000000000
 69       0.000000000000
 70      -0.000000000000
 71      -0.000000000000
 72       0.000000000000
 73       0.000000000000
 74       0.000000000075
 75       0.000000000000
 76      -0.000000000000
 77      -0.000000000000
 78      -0.000000000000
 79       0.000000000000
 80       0.000000000000
 81      -0.000000000112
 82       0.000000000000
 83       0.000000000000
 84       0.000000000000
 85       0.000000000000
 86       0.000000000112
 87       0.000000000000
 88       0.000000000000
 89      -0.000000000000
 90      -0.000000000000
 91       0.000000000112
 92      -0.000000000000
 93      -0.000000000000
 94      -0.000000000000
 95      -0.000000000000
 96      -0.000000000112
 Sym=     1a
 Ene= 1.34489381290451E+00
 Spin= Alpha
 Occup= 0.000000
  1       0.000000000000
  2      -0.000000000000
  3       0.000000000000
  4       0.000000000000
  5       0.000000000000
  6      -0.000000000612
  7      -0.000000000000
  8      -0.000000000000
  9       0.000000001112
 10       0.000000000000
 11       0.000000003730
 12      -0.000000000000
 13      -0.000000000000
 14      -0.000000000000
 15       0.000000000000
 16      -0.000000000000
 17       0.000000000000
 18      -0.000000000000
 19      -0.000000000000
 20      -0.000000000612
 21       0.000000000000
 22       0.000000000000
 23       0.000000001112
 24       0.000000000000
 25      -0.000000003730
 26       0.000000000000
 27      -0.000000000000
 28       0.000000000000
 29      -0.000000000000
 30      -0.000000000000
 31       0.000000000000
 32       0.000000000000
 33      -0.000000002594
 34      -0.000000000000
 35      -0.000000000000
 36       0.000000000000
 37      -0.000000000000
 38      -0.000000002594
 39      -0.000000000000
 40      -0.000000000000
 41      -0.000000000000
 42       0.000000000000
 43      -0.000000002594
 44      -0.000000000000
 45      -0.000000000000
 46      -0.000000000000
 47      -0.000000000000
 48      -0.000000002594
 49      -0.000000069398
 50       0.000000578397
 51      -0.000001361324
 52      -0.000000146658
 53      -0.000000001656
 54      -0.070313568721
 55       0.000000307007
 56      -0.000000000413
 57       0.127747267241
 58      -0.000000314101
 59       0.428419212334
 60       0.000000015699
 61       0.000000154035
 62       0.000000000400
 63      -0.000000066981
 64       0.000000577333
 65      -0.000001392916
 66       0.000000139575
 67       0.000000003019
 68      -0.070313563890
 69      -0.000000305216
 70       0.000000000870
 71       0.127747282221
 72      -0.000000312922
 73      -0.428419221586
 74      -0.000000012818
 75       0.000000154100
 76      -0.000000000106
 77       0.000000494727
 78       0.000000303427
 79      -0.000000317566
 80      -0.000000156270
 81      -0.297980846131
 82       0.000000494446
 83       0.000000303696
 84      -0.000000316890
 85       0.000000153566
 86      -0.297980885745
 87       0.000000495244
 88       0.000000308147
 89       0.000000314590
 90      -0.000000155867
 91      -0.297980885430
 92       0.000000488228
 93       0.000000306792
 94       0.000000315836
 95       0.000000157690
 96      -0.297980844408
 Sym=     1a
 Ene= 1.34489381797418E+00
 Spin= Alpha
 Occup= 0.000000
  1       0.000000068546
  2      -0.000000574155
  3       0.000001365301
  4       0.000000143874
  5       0.000000000430
  6      -0.070313571796
  7      -0.000000299770
  8      -0.000000004226
  9       0.127747268886
 10       0.000000314145
 11       0.428419217810
 12      -0.000000000697
 13      -0.000000153830
 14      -0.000000000151
 15       0.000000068221
 16      -0.000000576548
 17       0.000001373857
 18      -0.000000143714
 19      -0.000000000377
 20      -0.070313571518
 21       0.000000300328
 22       0.000000002296
 23       0.127747270954
 24       0.000000314060
 25      -0.428419218615
 26      -0.000000001853
 27      -0.000000153199
 28       0.000000000057
 29      -0.000000494547
 30      -0.000000301646
 31       0.000000314322
 32       0.000000157990
 33      -0.297980865021
 34      -0.000000496689
 35      -0.000000304880
 36       0.000000312069
 37      -0.000000156315
 38      -0.297980864627
 39      -0.000000496314
 40      -0.000000305119
 41      -0.000000314423
 42       0.000000156109
 43      -0.297980865913
 44      -0.000000493806
 45      -0.000000303438
 46      -0.000000314496
 47      -0.000000156275
 48      -0.297980860995
 49       0.000000000000
 50      -0.000000000000
 51       0.000000000000
 52       0.000000000000
 53       0.000000000000
 54       0.000000000612
 55      -0.000000000000
 56      -0.000000000000
 57      -0.000000001112
 58       0.000000000000
 59      -0.000000003730
 60      -0.000000000000
 61      -0.000000000000
 62       0.000000000000
 63       0.000000000000
 64      -0.000000000000
 65       0.000000000000
 66      -0.000000000000
 67      -0.000000000000
 68       0.000000000612
 69       0.000000000000
 70       0.000000000000
 71      -0.000000001112
 72       0.000000000000
 73       0.000000003730
 74      -0.000000000000
 75      -0.000000000000
 76      -0.000000000000
 77      -0.000000000000
 78      -0.000000000000
 79       0.000000000000
 80       0.000000000000
 81       0.000000002594
 82      -0.000000000000
 83      -0.000000000000
 84       0.000000000000
 85      -0.000000000000
 86       0.000000002594
 87      -0.000000000000
 88      -0.000000000000
 89      -0.000000000000
 90       0.000000000000
 91       0.000000002594
 92      -0.000000000000
 93      -0.000000000000
 94      -0.000000000000
 95      -0.000000000000
 96       0.000000002594
 Sym=     1a
 Ene= 1.64277019706891E+00
 Spin= Alpha
 Occup= 0.000000
  1      -0.000000000259
  2       0.000000003217
  3       0.000000011141
  4      -0.000000000349
  5       0.078020124601
  6       0.000000000504
  7      -0.000000003895
  8      -1.945363651589
  9      -0.000000000461
 10      -0.000000000982
 11      -0.000000001288
 12      -0.000000229238
 13      -0.000000001891
 14       0.062564587887
 15      -0.000000000529
 16       0.000000000995
 17       0.000000000049
 18       0.000000000377
 19      -0.078020124414
 20       0.000000001032
 21       0.000000010342
 22       1.945363654950
 23       0.000000000870
 24      -0.000000001778
 25       0.000000000670
 26       0.000000227056
 27      -0.000000002856
 28       0.062564590126
 29       0.477774392855
 30       0.612387903761
 31       0.348305506426
 32       0.344144206335
 33      -0.000000494299
 34      -0.477774397555
 35      -0.612387908969
 36      -0.348305503801
 37       0.344144201625
 38       0.000000495114
 39      -0.477774398499
 40      -0.612387908345
 41       0.348305502607
 42      -0.344144204516
 43       0.000000493461
 44       0.477774396818
 45       0.612387906041
 46      -0.348305510731
 47      -0.344144205769
 48      -0.000000493869
 49      -0.000000000000
 50       0.000000000000
 51      -0.000000000000
 52      -0.000000000000
 53       0.000000001550
 54       0.000000000000
 55      -0.000000000000
 56      -0.000000038645
 57       0.000000000000
 58       0.000000000000
 59      -0.000000000000
 60       0.000000000000
 61       0.000000000000
 62       0.000000001243
 63      -0.000000000000
 64       0.000000000000
 65       0.000000000000
 66      -0.000000000000
 67      -0.000000001550
 68       0.000000000000
 69      -0.000000000000
 70       0.000000038645
 71      -0.000000000000
 72      -0.000000000000
 73       0.000000000000
 74      -0.000000000000
 75      -0.000000000000
 76       0.000000001243
 77       0.000000009491
 78       0.000000012165
 79       0.000000006919
 80       0.000000006836
 81       0.000000000000
 82      -0.000000009491
 83      -0.000000012165
 84      -0.000000006919
 85       0.000000006836
 86      -0.000000000000
 87      -0.000000009491
 88      -0.000000012165
 89       0.000000006919
 90      -0.000000006836
 91      -0.000000000000
 92       0.000000009491
 93       0.000000012165
 94      -0.000000006919
 95      -0.000000006836
 96       0.000000000000
 Sym=     1a
 Ene= 1.64277019957373E+00
 Spin= Alpha
 Occup= 0.000000
  1       0.000000000000
  2      -0.000000000000
  3       0.000000000000
  4       0.000000000000
  5       0.000000001550
  6      -0.000000000000
  7       0.000000000000
  8      -0.000000038645
  9       0.000000000000
 10      -0.000000000000
 11       0.000000000000
 12      -0.000000000000
 13      -0.000000000000
 14       0.000000001243
 15       0.000000000000
 16      -0.000000000000
 17      -0.000000000000
 18       0.000000000000
 19      -0.000000001550
 20      -0.000000000000
 21       0.000000000000
 22       0.000000038645
 23      -0.000000000000
 24      -0.000000000000
 25       0.000000000000
 26       0.000000000000
 27      -0.000000000000
 28       0.000000001243
 29       0.000000009491
 30       0.000000012165
 31       0.000000006919
 32       0.000000006836
 33      -0.000000000000
 34      -0.000000009491
 35      -0.000000012165
 36      -0.000000006919
 37       0.000000006836
 38       0.000000000000
 39      -0.000000009491
 40      -0.000000012165
 41       0.000000006919
 42      -0.000000006836
 43       0.000000000000
 44       0.000000009491
 45       0.000000012165
 46      -0.000000006919
 47      -0.000000006836
 48      -0.000000000000
 49       0.000000000368
 50      -0.000000009086
 51      -0.000000016659
 52       0.000000001930
 53      -0.078020101724
 54       0.000000001148
 55       0.000000004299
 56       1.945363600279
 57       0.000000001107
 58      -0.000000001036
 59      -0.000000001873
 60      -0.000000223786
 61       0.000000001543
 62      -0.062564575893
 63       0.000000002054
 64      -0.000000004780
 65       0.000000000607
 66      -0.000000004766
 67       0.078020133810
 68       0.000000000378
 69      -0.000000013769
 70      -1.945363692724
 71      -0.000000000491
 72      -0.000000001723
 73       0.000000002314
 74       0.000000227553
 75       0.000000003759
 76      -0.062564606265
 77      -0.477774368570
 78      -0.612387883266
 79      -0.348305487600
 80      -0.344144175645
 81      -0.000000495928
 82       0.477774381418
 83       0.612387894035
 84       0.348305489163
 85      -0.344144162193
 86       0.000000492193
 87       0.477774414054
 88       0.612387922561
 89      -0.348305527256
 90       0.344144233211
 91       0.000000492683
 92      -0.477774419915
 93      -0.612387919963
 94       0.348305531157
 95       0.344144235511
 96      -0.000000491403
 Sym=     1a
 Ene= 1.69942874698678E+00
 Spin= Alpha
 Occup= 0.000000
  1       0.000000000000
  2      -0.000000000000
  3       0.000000000000
  4       0.000000000000
  5       0.000000000008
  6      -0.000000000000
  7      -0.000000000000
  8      -0.000000000029
  9      -0.000000000000
 10      -0.000000000000
 11      -0.000000000000
 12      -0.000000000000
 13      -0.000000000000
 14       0.000000000010
 15      -0.000000000000
 16       0.000000000000
 17       0.000000000000
 18      -0.000000000000
 19       0.000000000008
 20       0.000000000000
 21       0.000000000000
 22      -0.000000000029
 23       0.000000000000
 24      -0.000000000000
 25      -0.000000000000
 26       0.000000000000
 27      -0.000000000000
 28      -0.000000000010
 29       0.000000000012
 30       0.000000000009
 31       0.000000000014
 32       0.000000000020
 33       0.000000000000
 34      -0.000000000012
 35      -0.000000000009
 36      -0.000000000014
 37       0.000000000020
 38       0.000000000000
 39       0.000000000012
 40       0.000000000009
 41      -0.000000000014
 42       0.000000000020
 43      -0.000000000000
 44      -0.000000000012
 45      -0.000000000009
 46       0.000000000014
 47       0.000000000020
 48      -0.000000000000
 49       0.000000002438
 50      -0.000000018571
 51      -0.000000136182
 52      -0.000000052508
 53      -0.149007958274
 54      -0.000000001005
 55       0.000000211788
 56       0.561402848034
 57      -0.000000006557
 58       0.000000049631
 59      -0.000000001400
 60       0.000000087720
 61       0.000000083225
 62      -0.196800535922
 63       0.000000006241
 64      -0.000000031387
 65      -0.000000150076
 66       0.000000042452
 67      -0.149007943997
 68       0.000000002666
 69      -0.000000210989
 70       0.561402554905
 71       0.000000008131
 72       0.000000048352
 73      -0.000000002005
 74       0.000000090770
 75       0.000000082354
 76       0.196800528995
 77      -0.244716530859
 78      -0.183679213819
 79      -0.268344897307
 80      -0.390656493668
 81      -0.000000317719
 82       0.244716666412
 83       0.183679302490
 84       0.268344672581
 85      -0.390656471251
 86       0.000000331655
 87      -0.244716467670
 88      -0.183679118773
 89       0.268344832968
 90      -0.390656439467
 91      -0.000000331307
 92       0.244716593401
 93       0.183679212914
 94      -0.268344625005
 95      -0.390656407632
 96       0.000000318251
 Sym=     1a
 Ene= 1.69942874804014E+00
 Spin= Alpha
 Occup= 0.000000
  1       0.000000000961
  2      -0.000000006988
  3      -0.000000066567
  4      -0.000000024307
  5      -0.149007948402
  6       0.000000000590
  7       0.000000077068
  8       0.561402710895
  9       0.000000003971
 10       0.000000021627
 11       0.000000001630
 12      -0.000000093108
 13       0.000000033492
 14      -0.196800531091
 15       0.000000001198
 16      -0.000000007277
 17      -0.000000050932
 18       0.000000018606
 19      -0.149007949102
 20      -0.000000001640
 21      -0.000000093670
 22       0.561402697778
 23      -0.000000004376
 24       0.000000022914
 25       0.000000000610
 26      -0.000000091815
 27       0.000000034557
 28       0.196800530147
 29      -0.244716540464
 30      -0.183679199969
 31      -0.268344805551
 32      -0.390656453881
 33       0.000000320281
 34       0.244716594812
 35       0.183679235081
 36       0.268344719282
 37      -0.390656449546
 38      -0.000000328000
 39      -0.244716534927
 40      -0.183679193558
 41       0.268344806325
 42      -0.390656456936
 43       0.000000328431
 44       0.244716592295
 45       0.183679233499
 46      -0.268344714213
 47      -0.390656444730
 48      -0.000000321568
 49      -0.000000000000
 50       0.000000000000
 51       0.000000000000
 52       0.000000000000
 53      -0.000000000008
 54      -0.000000000000
 55      -0.000000000000
 56       0.000000000029
 57      -0.000000000000
 58      -0.000000000000
 59      -0.000000000000
 60       0.000000000000
 61      -0.000000000000
 62      -0.000000000010
 63      -0.000000000000
 64       0.000000000000
 65       0.000000000000
 66      -0.000000000000
 67      -0.000000000008
 68       0.000000000000
 69       0.000000000000
 70       0.000000000029
 71       0.000000000000
 72      -0.000000000000
 73      -0.000000000000
 74       0.000000000000
 75      -0.000000000000
 76       0.000000000010
 77      -0.000000000013
 78      -0.000000000009
 79      -0.000000000014
 80      -0.000000000020
 81       0.000000000000
 82       0.000000000012
 83       0.000000000009
 84       0.000000000014
 85      -0.000000000020
 86       0.000000000000
 87      -0.000000000013
 88      -0.000000000009
 89       0.000000000014
 90      -0.000000000020
 91      -0.000000000000
 92       0.000000000012
 93       0.000000000009
 94      -0.000000000014
 95      -0.000000000020
 96      -0.000000000000
 Sym=     1a
 Ene= 1.70520720226989E+00
 Spin= Alpha
 Occup= 0.000000
  1       0.000000000001
  2      -0.000000000009
  3      -0.000000000059
  4      -0.000000000021
  5      -0.000000000000
  6      -0.000000000000
  7       0.000000000087
  8       0.000000000000
  9      -0.000000000000
 10       0.000000000022
 11      -0.000000000000
 12       0.000000000000
 13       0.000000000035
 14      -0.000000000000
 15       0.000000000001
 16      -0.000000000009
 17      -0.000000000059
 18       0.000000000021
 19      -0.000000000000
 20       0.000000000000
 21      -0.000000000087
 22       0.000000000000
 23       0.000000000000
 24       0.000000000022
 25      -0.000000000000
 26      -0.000000000000
 27       0.000000000035
 28       0.000000000000
 29       0.000000000029
 30       0.000000000019
 31      -0.000000000045
 32      -0.000000000006
 33       0.000000000000
 34       0.000000000029
 35       0.000000000019
 36      -0.000000000045
 37       0.000000000006
 38       0.000000000000
 39       0.000000000029
 40       0.000000000019
 41       0.000000000045
 42      -0.000000000006
 43      -0.000000000000
 44       0.000000000029
 45       0.000000000019
 46       0.000000000045
 47       0.000000000006
 48      -0.000000000000
 49       0.011501207033
 50      -0.078707229173
 51      -0.513857494984
 52      -0.183438310420
 53       0.000000036556
 54      -0.000000199014
 55       0.754075048615
 56      -0.000000161640
 57      -0.000000050152
 58       0.194103045306
 59      -0.000000081175
 60       0.000000001323
 61       0.306492434597
 62       0.000000056642
 63       0.011501202085
 64      -0.078707195190
 65      -0.513857356654
 66       0.183438287457
 67       0.000000040754
 68      -0.000000201903
 69      -0.754075171179
 70      -0.000000142503
 71      -0.000000060568
 72       0.194103061565
 73       0.000000083398
 74      -0.000000000037
 75       0.306492451097
 76      -0.000000055045
 77       0.247782256842
 78       0.163612945343
 79      -0.393096422228
 80      -0.048582463041
 81       0.000000287008
 82       0.247782114421
 83       0.163612839430
 84      -0.393096572383
 85       0.048582672297
 86       0.000000286852
 87       0.247782260675
 88       0.163612943202
 89       0.393096460551
 90      -0.048582467984
 91       0.000000297453
 92       0.247782135043
 93       0.163612852605
 94       0.393096601088
 95       0.048582679958
 96       0.000000298328
 Sym=     1a
 Ene= 1.70520720339133E+00
 Spin= Alpha
 Occup= 0.000000
  1       0.011501205885
  2      -0.078707217908
  3      -0.513857425271
  4      -0.183438299488
  5       0.000000015738
  6       0.000000202040
  7       0.754075105284
  8      -0.000000077224
  9       0.000000053725
 10       0.194103051512
 11       0.000000077633
 12       0.000000000272
 13       0.306492441659
 14       0.000000023834
 15       0.011501204404
 16      -0.078707212839
 17      -0.513857416803
 18       0.183438299924
 19       0.000000015126
 20       0.000000203399
 21      -0.754075110970
 22      -0.000000050120
 23       0.000000059218
 24       0.194103053561
 25      -0.000000079050
 26      -0.000000000127
 27       0.306492442411
 28      -0.000000022498
 29       0.247782223879
 30       0.163612919406
 31      -0.393096480425
 32      -0.048582526462
 33      -0.000000291493
 34       0.247782161082
 35       0.163612869434
 36      -0.393096546342
 37       0.048582618207
 38      -0.000000291298
 39       0.247782217033
 40       0.163612909948
 41       0.393096488774
 42      -0.048582530130
 43      -0.000000295262
 44       0.247782170409
 45       0.163612878082
 46       0.393096543716
 47       0.048582613356
 48      -0.000000294360
 49      -0.000000000001
 50       0.000000000009
 51       0.000000000059
 52       0.000000000021
 53      -0.000000000000
 54       0.000000000000
 55      -0.000000000087
 56       0.000000000000
 57       0.000000000000
 58      -0.000000000022
 59       0.000000000000
 60      -0.000000000000
 61      -0.000000000035
 62      -0.000000000000
 63      -0.000000000001
 64       0.000000000009
 65       0.000000000059
 66      -0.000000000021
 67      -0.000000000000
 68      -0.000000000000
 69       0.000000000087
 70       0.000000000000
 71      -0.000000000000
 72      -0.000000000022
 73       0.000000000000
 74       0.000000000000
 75      -0.000000000035
 76       0.000000000000
 77      -0.000000000029
 78      -0.000000000019
 79       0.000000000045
 80       0.000000000006
 81      -0.000000000000
 82      -0.000000000029
 83      -0.000000000019
 84       0.000000000045
 85      -0.000000000006
 86      -0.000000000000
 87      -0.000000000029
 88      -0.000000000019
 89      -0.000000000045
 90       0.000000000006
 91       0.000000000000
 92      -0.000000000029
 93      -0.000000000019
 94      -0.000000000045
 95      -0.000000000006
 96       0.000000000000
 Sym=     1a
 Ene= 1.77636255383569E+00
 Spin= Alpha
 Occup= 0.000000
  1       0.000000053578
  2       0.000000260473
  3      -0.000011433960
  4       0.000000031554
  5      -0.000000000532
  6      -0.148645924180
  7      -0.000005049217
  8       0.000000002995
  9      -0.560016299412
 10      -0.000000893480
 11      -0.162153777267
 12      -0.000000000307
 13      -0.000000521313
 14      -0.000000002036
 15      -0.000000054055
 16      -0.000000251416
 17       0.000011428629
 18       0.000000028108
 19      -0.000000000265
 20       0.148645920380
 21      -0.000005042815
 22       0.000000004531
 23       0.560016297058
 24       0.000000897722
 25      -0.162153774894
 26       0.000000001204
 27       0.000000518041
 28       0.000000001391
 29       0.000000597459
 30       0.000000346114
 31       0.000000742927
 32      -0.000000160214
 33       0.538913717636
 34       0.000000601625
 35       0.000000348079
 36       0.000000747170
 37       0.000000155009
 38       0.538913717915
 39      -0.000000602607
 40      -0.000000348246
 41       0.000000742792
 42       0.000000159404
 43      -0.538913720145
 44      -0.000000600722
 45      -0.000000346833
 46       0.000000740426
 47      -0.000000164485
 48      -0.538913722675
 49       0.000000000000
 50      -0.000000000000
 51       0.000000000000
 52       0.000000000000
 53      -0.000000000000
 54      -0.000000000000
 55      -0.000000000000
 56       0.000000000000
 57      -0.000000000001
 58      -0.000000000000
 59      -0.000000000000
 60      -0.000000000000
 61      -0.000000000000
 62       0.000000000000
 63      -0.000000000000
 64       0.000000000000
 65       0.000000000000
 66      -0.000000000000
 67       0.000000000000
 68       0.000000000000
 69       0.000000000000
 70      -0.000000000000
 71       0.000000000001
 72      -0.000000000000
 73      -0.000000000000
 74      -0.000000000000
 75      -0.000000000000
 76      -0.000000000000
 77      -0.000000000000
 78      -0.000000000000
 79       0.000000000000
 80      -0.000000000000
 81       0.000000000001
 82      -0.000000000000
 83       0.000000000000
 84       0.000000000000
 85       0.000000000000
 86       0.000000000001
 87      -0.000000000000
 88       0.000000000000
 89      -0.000000000000
 90       0.000000000000
 91      -0.000000000001
 92      -0.000000000000
 93      -0.000000000000
 94      -0.000000000000
 95       0.000000000000
 96      -0.000000000001
 Sym=     1a
 Ene= 1.77636255916549E+00
 Spin= Alpha
 Occup= 0.000000
  1      -0.000000000000
  2       0.000000000000
  3       0.000000000000
  4      -0.000000000000
  5       0.000000000000
  6       0.000000000000
  7       0.000000000000
  8      -0.000000000000
  9       0.000000000001
 10       0.000000000000
 11       0.000000000000
 12       0.000000000000
 13       0.000000000000
 14       0.000000000000
 15       0.000000000000
 16      -0.000000000000
 17      -0.000000000000
 18       0.000000000000
 19       0.000000000000
 20      -0.000000000000
 21       0.000000000000
 22      -0.000000000000
 23      -0.000000000001
 24      -0.000000000000
 25       0.000000000000
 26       0.000000000000
 27       0.000000000000
 28      -0.000000000000
 29       0.000000000000
 30       0.000000000000
 31      -0.000000000000
 32       0.000000000000
 33      -0.000000000001
 34       0.000000000000
 35       0.000000000000
 36      -0.000000000000
 37       0.000000000000
 38      -0.000000000001
 39       0.000000000000
 40      -0.000000000000
 41       0.000000000000
 42       0.000000000000
 43       0.000000000001
 44      -0.000000000000
 45       0.000000000000
 46      -0.000000000000
 47       0.000000000000
 48       0.000000000001
 49      -0.000000055632
 50      -0.000000245466
 51       0.000011500092
 52      -0.000000030584
 53       0.000000000666
 54      -0.148645926131
 55       0.000005106705
 56      -0.000000000419
 57      -0.560016296269
 58       0.000000897340
 59      -0.162153788090
 60      -0.000000000690
 61       0.000000528629
 62       0.000000001778
 63       0.000000054391
 64       0.000000235130
 65      -0.000011484055
 66      -0.000000012775
 67      -0.000000002013
 68       0.148645915992
 69       0.000005096984
 70      -0.000000015775
 71       0.560016288355
 72      -0.000000904777
 73      -0.162153765947
 74       0.000000004021
 75      -0.000000521787
 76      -0.000000001376
 77      -0.000000593088
 78      -0.000000343894
 79      -0.000000760612
 80       0.000000160420
 81       0.538913708573
 82      -0.000000597035
 83      -0.000000346527
 84      -0.000000769541
 85      -0.000000153888
 86       0.538913710878
 87       0.000000603859
 88       0.000000348933
 89      -0.000000759870
 90      -0.000000155053
 91      -0.538913725480
 92       0.000000603878
 93       0.000000340894
 94      -0.000000749101
 95       0.000000166120
 96      -0.538913733012
 Sym=     1a
 Ene= 1.81850290764134E+00
 Spin= Alpha
 Occup= 0.000000
  1       0.000000000001
  2      -0.000000000008
  3      -0.000000000029
  4      -0.000000000003
  5       0.000000000000
  6       0.000000000000
  7      -0.000000000025
  8      -0.000000000000
  9       0.000000000000
 10      -0.000000000003
 11      -0.000000000000
 12       0.000000000000
 13      -0.000000000003
 14      -0.000000000000
 15      -0.000000000001
 16       0.000000000008
 17       0.000000000029
 18      -0.000000000003
 19      -0.000000000000
 20       0.000000000000
 21      -0.000000000025
 22       0.000000000000
 23      -0.000000000000
 24       0.000000000003
 25      -0.000000000000
 26       0.000000000000
 27       0.000000000003
 28       0.000000000000
 29      -0.000000000002
 30      -0.000000000001
 31       0.000000000008
 32       0.000000000001
 33      -0.000000000000
 34      -0.000000000002
 35      -0.000000000001
 36       0.000000000008
 37      -0.000000000001
 38      -0.000000000000
 39       0.000000000002
 40       0.000000000001
 41       0.000000000008
 42      -0.000000000001
 43      -0.000000000000
 44       0.000000000002
 45       0.000000000001
 46       0.000000000008
 47       0.000000000001
 48       0.000000000000
 49      -0.077119264637
 50       0.488565020116
 51       1.828405076062
 52       0.178543264672
 53       0.000000006581
 54      -0.000000063226
 55       1.575576520472
 56       0.000000007882
 57       0.000001534758
 58       0.188790932567
 59       0.000000496162
 60      -0.000000000484
 61       0.190883317555
 62       0.000000010788
 63       0.077119271213
 64      -0.488565070431
 65      -1.828405098090
 66       0.178543274036
 67       0.000000000525
 68       0.000000062551
 69       1.575576440929
 70      -0.000000004900
 71      -0.000001535387
 72      -0.188790952277
 73       0.000000496234
 74      -0.000000000077
 75      -0.190883284692
 76      -0.000000011692
 77       0.156577150498
 78       0.067479731954
 79      -0.482697736368
 80      -0.039539485288
 81      -0.000000981691
 82       0.156577151401
 83       0.067479751537
 84      -0.482697711789
 85       0.039539497250
 86      -0.000000981769
 87      -0.156577132536
 88      -0.067479731247
 89      -0.482697684663
 90       0.039539472055
 91       0.000000983547
 92      -0.156577144081
 93      -0.067479725238
 94      -0.482697697824
 95      -0.039539465161
 96       0.000000982664
 Sym=     1a
 Ene= 1.81850290792104E+00
 Spin= Alpha
 Occup= 0.000000
  1       0.077119268586
  2      -0.488565047671
  3      -1.828405084626
  4      -0.178543269739
  5       0.000000000511
  6      -0.000000068317
  7      -1.575576486489
  8      -0.000000005651
  9       0.000001517539
 10      -0.188790940643
 11       0.000000490358
 12       0.000000000396
 13      -0.190883300854
 14       0.000000005107
 15      -0.077119267894
 16       0.488565048476
 17       1.828405084249
 18      -0.178543274374
 19       0.000000001414
 20       0.000000066260
 21      -1.575576482078
 22       0.000000005325
 23      -0.000001518640
 24       0.188790942962
 25       0.000000490649
 26       0.000000000450
 27       0.190883297607
 28      -0.000000004132
 29      -0.156577138076
 30      -0.067479737850
 31       0.482697708154
 32       0.039539482353
 33      -0.000000965626
 34      -0.156577145080
 35      -0.067479738004
 36       0.482697711503
 37      -0.039539478466
 38      -0.000000965420
 39       0.156577141021
 40       0.067479733041
 41       0.482697711409
 42      -0.039539478914
 43       0.000000964586
 44       0.156577139594
 45       0.067479740738
 46       0.482697702762
 47       0.039539481122
 48       0.000000963397
 49       0.000000000001
 50      -0.000000000008
 51      -0.000000000029
 52      -0.000000000003
 53       0.000000000000
 54      -0.000000000000
 55      -0.000000000025
 56       0.000000000000
 57      -0.000000000000
 58      -0.000000000003
 59       0.000000000000
 60       0.000000000000
 61      -0.000000000003
 62       0.000000000000
 63      -0.000000000001
 64       0.000000000008
 65       0.000000000029
 66      -0.000000000003
 67       0.000000000000
 68       0.000000000000
 69      -0.000000000025
 70      -0.000000000000
 71       0.000000000000
 72       0.000000000003
 73      -0.000000000000
 74      -0.000000000000
 75       0.000000000003
 76      -0.000000000000
 77      -0.000000000002
 78      -0.000000000001
 79       0.000000000008
 80       0.000000000001
 81       0.000000000000
 82      -0.000000000002
 83      -0.000000000001
 84       0.000000000008
 85      -0.000000000001
 86       0.000000000000
 87       0.000000000002
 88       0.000000000001
 89       0.000000000008
 90      -0.000000000001
 91      -0.000000000000
 92       0.000000000002
 93       0.000000000001
 94       0.000000000008
 95       0.000000000001
 96      -0.000000000000
 Sym=     1a
 Ene= 1.85429106742594E+00
 Spin= Alpha
 Occup= 0.000000
  1       0.000000001671
  2      -0.000000013534
  3      -0.000000015434
  4      -0.000000002521
  5      -0.071490698129
  6       0.000000000782
  7      -0.000000009936
  8      -0.155343340925
  9       0.000000000253
 10      -0.000000008955
 11      -0.000000000531
 12      -0.000000159375
 13       0.000000000075
 14      -0.412451710526
 15      -0.000000000064
 16      -0.000000003987
 17       0.000000022238
 18      -0.000000000688
 19      -0.071490699282
 20       0.000000000912
 21      -0.000000019597
 22      -0.155343343411
 23       0.000000000753
 24      -0.000000005289
 25       0.000000000285
 26      -0.000000159655
 27       0.000000003994
 28       0.412451711230
 29      -0.127126344372
 30       0.252645575196
 31       0.411840602665
 32      -0.037958105902
 33       0.000000089682
 34       0.127126341574
 35      -0.252645574552
 36      -0.411840596451
 37      -0.037958097777
 38      -0.000000090220
 39      -0.127126341392
 40       0.252645576826
 41      -0.411840594388
 42      -0.037958106352
 43       0.000000090115
 44       0.127126344297
 45      -0.252645574793
 46       0.411840606215
 47      -0.037958097362
 48      -0.000000089182
 49      -0.000000000000
 50       0.000000000000
 51      -0.000000000000
 52       0.000000000000
 53      -0.000000000159
 54      -0.000000000000
 55      -0.000000000000
 56      -0.000000000345
 57      -0.000000000000
 58       0.000000000000
 59      -0.000000000000
 60       0.000000000000
 61      -0.000000000000
 62      -0.000000000916
 63      -0.000000000000
 64       0.000000000000
 65       0.000000000000
 66      -0.000000000000
 67      -0.000000000159
 68       0.000000000000
 69      -0.000000000000
 70      -0.000000000345
 71       0.000000000000
 72       0.000000000000
 73      -0.000000000000
 74       0.000000000000
 75      -0.000000000000
 76       0.000000000916
 77      -0.000000000282
 78       0.000000000561
 79       0.000000000914
 80      -0.000000000084
 81       0.000000000000
 82       0.000000000282
 83      -0.000000000561
 84      -0.000000000914
 85      -0.000000000084
 86       0.000000000000
 87      -0.000000000282
 88       0.000000000561
 89      -0.000000000914
 90      -0.000000000084
 91      -0.000000000000
 92       0.000000000282
 93      -0.000000000561
 94       0.000000000914
 95      -0.000000000084
 96      -0.000000000000
 Sym=     1a
 Ene= 1.85429106795732E+00
 Spin= Alpha
 Occup= 0.000000
  1       0.000000000000
  2      -0.000000000000
  3      -0.000000000000
  4      -0.000000000000
  5       0.000000000159
  6      -0.000000000000
  7      -0.000000000000
  8       0.000000000345
  9      -0.000000000000
 10      -0.000000000000
 11      -0.000000000000
 12       0.000000000000
 13      -0.000000000000
 14       0.000000000916
 15      -0.000000000000
 16       0.000000000000
 17       0.000000000000
 18      -0.000000000000
 19       0.000000000159
 20       0.000000000000
 21      -0.000000000000
 22       0.000000000345
 23       0.000000000000
 24       0.000000000000
 25       0.000000000000
 26      -0.000000000000
 27       0.000000000000
 28      -0.000000000916
 29       0.000000000282
 30      -0.000000000561
 31      -0.000000000914
 32       0.000000000084
 33       0.000000000000
 34      -0.000000000282
 35       0.000000000561
 36       0.000000000914
 37       0.000000000084
 38       0.000000000000
 39       0.000000000282
 40      -0.000000000561
 41       0.000000000914
 42       0.000000000084
 43      -0.000000000000
 44      -0.000000000282
 45       0.000000000561
 46      -0.000000000914
 47       0.000000000084
 48      -0.000000000000
 49      -0.000000000783
 50       0.000000001408
 51       0.000000039110
 52       0.000000004909
 53      -0.071490687108
 54       0.000000000980
 55       0.000000043158
 56      -0.155343339943
 57       0.000000001994
 58      -0.000000001312
 59       0.000000001576
 60       0.000000160223
 61       0.000000008732
 62      -0.412451707129
 63       0.000000004293
 64      -0.000000024698
 65      -0.000000039426
 66       0.000000000678
 67      -0.071490704618
 68       0.000000000262
 69       0.000000024880
 70      -0.155343350950
 71      -0.000000000915
 72      -0.000000012221
 73      -0.000000000628
 74       0.000000161027
 75      -0.000000001718
 76       0.412451713361
 77      -0.127126339505
 78       0.252645574749
 79       0.411840582797
 80      -0.037958100720
 81      -0.000000091587
 82       0.127126350768
 83      -0.252645569531
 84      -0.411840610187
 85      -0.037958088697
 86       0.000000089875
 87      -0.127126349390
 88       0.252645579867
 89      -0.411840617790
 90      -0.037958103840
 91      -0.000000086830
 92       0.127126338527
 93      -0.252645580104
 94       0.411840595517
 95      -0.037958096497
 96       0.000000092494
 Sym=     1a
 Ene= 1.89505438358868E+00
 Spin= Alpha
 Occup= 0.000000
  1       0.066939093551
  2      -0.608463417917
  3       0.265292711517
  4      -0.049588448608
  5      -0.000000001081
  6      -0.000000891327
  7       0.329386872607
  8      -0.000000000576
  9       0.000000457566
 10      -0.555325981428
 11       0.000000636927
 12       0.000000000700
 13       0.114484786460
 14       0.000000006090
 15       0.066939093440
 16      -0.608463416036
 17       0.265292729708
 18       0.049588446859
 19      -0.000000000440
 20      -0.000000889463
 21      -0.329386886168
 22       0.000000004958
 23       0.000000464666
 24      -0.555325980708
 25      -0.000000639435
 26       0.000000000870
 27       0.114484787226
 28      -0.000000005688
 29      -0.042006737356
 30       0.028170032183
 31      -0.090412198563
 32      -0.267671139047
 33       0.000000249475
 34      -0.042006743657
 35       0.028170036191
 36      -0.090412188827
 37       0.267671137136
 38       0.000000250023
 39      -0.042006741643
 40       0.028170029185
 41       0.090412203210
 42      -0.267671138637
 43       0.000000243905
 44      -0.042006741058
 45       0.028170040014
 46       0.090412189178
 47       0.267671137898
 48       0.000000243795
 49       0.000000000006
 50      -0.000000000056
 51       0.000000000024
 52      -0.000000000005
 53       0.000000000000
 54       0.000000000000
 55       0.000000000030
 56      -0.000000000000
 57       0.000000000000
 58      -0.000000000051
 59       0.000000000000
 60      -0.000000000000
 61       0.000000000010
 62       0.000000000000
 63       0.000000000006
 64      -0.000000000056
 65       0.000000000024
 66       0.000000000005
 67      -0.000000000000
 68      -0.000000000000
 69      -0.000000000030
 70       0.000000000000
 71      -0.000000000000
 72      -0.000000000051
 73       0.000000000000
 74      -0.000000000000
 75       0.000000000010
 76      -0.000000000000
 77      -0.000000000004
 78       0.000000000003
 79      -0.000000000008
 80      -0.000000000024
 81      -0.000000000000
 82      -0.000000000004
 83       0.000000000003
 84      -0.000000000008
 85       0.000000000024
 86       0.000000000000
 87      -0.000000000004
 88       0.000000000003
 89       0.000000000008
 90      -0.000000000024
 91       0.000000000000
 92      -0.000000000004
 93       0.000000000003
 94       0.000000000008
 95       0.000000000024
 96       0.000000000000
 Sym=     1a
 Ene= 1.89505438625705E+00
 Spin= Alpha
 Occup= 0.000000
  1      -0.000000000006
  2       0.000000000056
  3      -0.000000000024
  4       0.000000000005
  5      -0.000000000000
  6       0.000000000000
  7      -0.000000000030
  8      -0.000000000000
  9       0.000000000000
 10       0.000000000051
 11      -0.000000000000
 12       0.000000000000
 13      -0.000000000010
 14      -0.000000000000
 15      -0.000000000006
 16       0.000000000056
 17      -0.000000000024
 18      -0.000000000005
 19      -0.000000000000
 20       0.000000000000
 21       0.000000000030
 22      -0.000000000000
 23      -0.000000000000
 24       0.000000000051
 25       0.000000000000
 26       0.000000000000
 27      -0.000000000010
 28       0.000000000000
 29       0.000000000004
 30      -0.000000000003
 31       0.000000000008
 32       0.000000000024
 33      -0.000000000000
 34       0.000000000004
 35      -0.000000000003
 36       0.000000000008
 37      -0.000000000024
 38      -0.000000000000
 39       0.000000000004
 40      -0.000000000003
 41      -0.000000000008
 42       0.000000000024
 43      -0.000000000000
 44       0.000000000004
 45      -0.000000000003
 46      -0.000000000008
 47      -0.000000000024
 48       0.000000000000
 49       0.066939095113
 50      -0.608463417635
 51       0.265292623604
 52      -0.049588472239
 53      -0.000000005257
 54       0.000000890530
 55       0.329386799173
 56      -0.000000015040
 57      -0.000000457337
 58      -0.555325986103
 59      -0.000000631817
 60      -0.000000005219
 61       0.114484779428
 62       0.000000010470
 63       0.066939088724
 64      -0.608463397275
 65       0.265292831496
 66       0.049588441181
 67       0.000000004021
 68       0.000000887482
 69      -0.329386952355
 70       0.000000011702
 71      -0.000000467096
 72      -0.555325985631
 73       0.000000636436
 74      -0.000000002514
 75       0.114484795068
 76      -0.000000007433
 77      -0.042006744777
 78       0.028170028116
 79      -0.090412179602
 80      -0.267671118582
 81      -0.000000246046
 82      -0.042006762903
 83       0.028170022901
 84      -0.090412181899
 85       0.267671120069
 86      -0.000000249272
 87      -0.042006735120
 88       0.028170029536
 89       0.090412222872
 90      -0.267671142107
 91      -0.000000238846
 92      -0.042006737958
 93       0.028170043800
 94       0.090412206366
 95       0.267671144755
 96      -0.000000239230
 Sym=     1a
 Ene= 1.99335330537233E+00
 Spin= Alpha
 Occup= 0.000000
  1      -0.000000000000
  2       0.000000000000
  3      -0.000000000000
  4       0.000000000000
  5      -0.000000000000
  6      -0.000000002450
  7       0.000000000000
  8      -0.000000000000
  9      -0.000000001753
 10       0.000000000000
 11       0.000000005970
 12      -0.000000000000
 13       0.000000000000
 14      -0.000000000000
 15      -0.000000000000
 16       0.000000000000
 17      -0.000000000000
 18      -0.000000000000
 19       0.000000000000
 20      -0.000000002450
 21      -0.000000000000
 22       0.000000000000
 23      -0.000000001753
 24       0.000000000000
 25      -0.000000005970
 26      -0.000000000000
 27      -0.000000000000
 28       0.000000000000
 29       0.000000000000
 30       0.000000000000
 31       0.000000000000
 32       0.000000000000
 33       0.000000005846
 34       0.000000000000
 35       0.000000000000
 36      -0.000000000000
 37      -0.000000000000
 38       0.000000005846
 39       0.000000000000
 40       0.000000000000
 41      -0.000000000000
 42       0.000000000000
 43       0.000000005846
 44       0.000000000000
 45       0.000000000000
 46      -0.000000000000
 47      -0.000000000000
 48       0.000000005846
 49       0.000000077117
 50      -0.000000904339
 51       0.000001285816
 52      -0.000000187112
 53       0.000000001486
 54      -0.199021214842
 55      -0.000000009003
 56       0.000000007277
 57      -0.142388721198
 58      -0.000000423463
 59       0.484903629313
 60      -0.000000005204
 61       0.000000004211
 62       0.000000000517
 63       0.000000073721
 64      -0.000000900156
 65       0.000001296770
 66       0.000000193200
 67      -0.000000003057
 68      -0.199021207564
 69       0.000000014308
 70      -0.000000007703
 71      -0.142388710840
 72      -0.000000423172
 73      -0.484903645073
 74      -0.000000002094
 75       0.000000004033
 76      -0.000000001083
 77      -0.000000535154
 78      -0.000000175610
 79       0.000000041511
 80      -0.000000359445
 81       0.474757329515
 82      -0.000000532128
 83      -0.000000170060
 84       0.000000045940
 85       0.000000359621
 86       0.474757325853
 87      -0.000000529880
 88      -0.000000173563
 89      -0.000000043172
 90      -0.000000357553
 91       0.474757311549
 92      -0.000000527321
 93      -0.000000175402
 94      -0.000000042240
 95       0.000000359264
 96       0.474757303077
 Sym=     1a
 Ene= 1.99335330667839E+00
 Spin= Alpha
 Occup= 0.000000
  1      -0.000000076962
  2       0.000000905216
  3      -0.000001282913
  4       0.000000186060
  5      -0.000000000989
  6      -0.199021205926
  7       0.000000011053
  8      -0.000000002950
  9      -0.142388713003
 10       0.000000427641
 11       0.484903635683
 12      -0.000000000256
 13      -0.000000002854
 14       0.000000000359
 15      -0.000000076601
 16       0.000000907727
 17      -0.000001298145
 18      -0.000000185394
 19       0.000000000743
 20      -0.199021205574
 21      -0.000000007647
 22       0.000000002480
 23      -0.142388712470
 24       0.000000429370
 25      -0.484903636622
 26      -0.000000000585
 27      -0.000000002831
 28      -0.000000000156
 29       0.000000536417
 30       0.000000174519
 31      -0.000000042454
 32       0.000000359499
 33       0.474757320576
 34       0.000000534369
 35       0.000000172213
 36      -0.000000044259
 37      -0.000000360078
 38       0.474757319900
 39       0.000000535182
 40       0.000000173498
 41       0.000000044078
 42       0.000000361554
 43       0.474757317928
 44       0.000000534829
 45       0.000000174305
 46       0.000000043740
 47      -0.000000361844
 48       0.474757315810
 49      -0.000000000000
 50       0.000000000000
 51      -0.000000000000
 52       0.000000000000
 53      -0.000000000000
 54       0.000000002450
 55       0.000000000000
 56       0.000000000000
 57       0.000000001753
 58       0.000000000000
 59      -0.000000005970
 60       0.000000000000
 61      -0.000000000000
 62       0.000000000000
 63      -0.000000000000
 64       0.000000000000
 65      -0.000000000000
 66      -0.000000000000
 67      -0.000000000000
 68       0.000000002450
 69      -0.000000000000
 70      -0.000000000000
 71       0.000000001753
 72       0.000000000000
 73       0.000000005970
 74       0.000000000000
 75      -0.000000000000
 76       0.000000000000
 77       0.000000000000
 78       0.000000000000
 79      -0.000000000000
 80       0.000000000000
 81      -0.000000005846
 82       0.000000000000
 83       0.000000000000
 84      -0.000000000000
 85      -0.000000000000
 86      -0.000000005846
 87       0.000000000000
 88       0.000000000000
 89      -0.000000000000
 90       0.000000000000
 91      -0.000000005846
 92       0.000000000000
 93       0.000000000000
 94       0.000000000000
 95      -0.000000000000
 96      -0.000000005846
 Sym=     1a
 Ene= 2.15354377660312E+00
 Spin= Alpha
 Occup= 0.000000
  1       0.000000000000
  2      -0.000000000000
  3       0.000000000000
  4       0.000000000000
  5       0.000000000001
  6      -0.000000000000
  7       0.000000000000
  8       0.000000000005
  9      -0.000000000000
 10       0.000000000000
 11       0.000000000000
 12       0.000014055008
 13      -0.000000000000
 14      -0.000000000000
 15       0.000000000000
 16       0.000000000000
 17      -0.000000000000
 18      -0.000000000000
 19       0.000000000001
 20      -0.000000000000
 21       0.000000000000
 22       0.000000000005
 23      -0.000000000000
 24       0.000000000000
 25      -0.000000000000
 26       0.000014055008
 27      -0.000000000000
 28       0.000000000000
 29      -0.000000000005
 30      -0.000000000002
 31       0.000000000001
 32      -0.000000000005
 33      -0.000008972064
 34       0.000000000005
 35       0.000000000002
 36      -0.000000000001
 37      -0.000000000005
 38       0.000008972064
 39      -0.000000000005
 40      -0.000000000002
 41      -0.000000000001
 42      -0.000000000005
 43      -0.000008972064
 44       0.000000000005
 45       0.000000000002
 46       0.000000000001
 47      -0.000000000005
 48       0.000008972064
 49      -0.000000000055
 50       0.000000001938
 51      -0.000000005372
 52      -0.000000001659
 53       0.000000066135
 54      -0.000000001545
 55      -0.000000004646
 56       0.000000232155
 57       0.000000000352
 58       0.000000002253
 59      -0.000000001539
 60      -0.665172944512
 61      -0.000000000336
 62      -0.000000013213
 63      -0.000000001758
 64       0.000000003514
 65       0.000000012610
 66       0.000000003579
 67       0.000000054399
 68      -0.000000002163
 69       0.000000000548
 70       0.000000216346
 71      -0.000000002845
 72       0.000000002117
 73       0.000000003256
 74      -0.665172969125
 75      -0.000000000014
 76       0.000000012741
 77      -0.000000252497
 78      -0.000000112318
 79       0.000000067218
 80      -0.000000250929
 81       0.424615485920
 82       0.000000252238
 83       0.000000111167
 84      -0.000000066578
 85      -0.000000254371
 86      -0.424615491989
 87      -0.000000252575
 88      -0.000000109235
 89      -0.000000072362
 90      -0.000000252602
 91       0.424615501313
 92       0.000000255963
 93       0.000000106250
 94       0.000000072832
 95      -0.000000256002
 96      -0.424615509189
 Sym=     1a
 Ene= 2.15354377674298E+00
 Spin= Alpha
 Occup= 0.000000
  1      -0.000000000072
  2       0.000000000160
  3       0.000000000573
  4      -0.000000000585
  5      -0.000000059882
  6       0.000000000148
  7       0.000000000037
  8      -0.000000223711
  9       0.000000000245
 10      -0.000000000944
 11      -0.000000000453
 12      -0.665172957876
 13       0.000000000509
 14       0.000000012534
 15      -0.000000000107
 16      -0.000000000068
 17       0.000000000528
 18       0.000000000733
 19      -0.000000062685
 20       0.000000000267
 21      -0.000000000396
 22      -0.000000227082
 23       0.000000000119
 24      -0.000000000566
 25       0.000000000531
 26      -0.665172960127
 27       0.000000000360
 28      -0.000000012658
 29       0.000000248944
 30       0.000000107996
 31      -0.000000069870
 32       0.000000256174
 33       0.424615493812
 34      -0.000000249900
 35      -0.000000108402
 36       0.000000069672
 37       0.000000255265
 38      -0.424615494867
 39       0.000000250688
 40       0.000000110143
 41       0.000000067878
 42       0.000000254597
 43       0.424615494894
 44      -0.000000250323
 45      -0.000000110388
 46      -0.000000067448
 47       0.000000254366
 48      -0.424615495772
 49      -0.000000000000
 50       0.000000000000
 51      -0.000000000000
 52      -0.000000000000
 53       0.000000000001
 54      -0.000000000000
 55      -0.000000000000
 56       0.000000000005
 57       0.000000000000
 58       0.000000000000
 59      -0.000000000000
 60      -0.000014055008
 61      -0.000000000000
 62      -0.000000000000
 63      -0.000000000000
 64       0.000000000000
 65       0.000000000000
 66       0.000000000000
 67       0.000000000001
 68      -0.000000000000
 69       0.000000000000
 70       0.000000000005
 71      -0.000000000000
 72       0.000000000000
 73       0.000000000000
 74      -0.000014055008
 75       0.000000000000
 76       0.000000000000
 77      -0.000000000005
 78      -0.000000000002
 79       0.000000000001
 80      -0.000000000005
 81       0.000008972064
 82       0.000000000005
 83       0.000000000002
 84      -0.000000000001
 85      -0.000000000005
 86      -0.000008972064
 87      -0.000000000005
 88      -0.000000000002
 89      -0.000000000002
 90      -0.000000000005
 91       0.000008972064
 92       0.000000000005
 93       0.000000000002
 94       0.000000000002
 95      -0.000000000005
 96      -0.000008972064
 Sym=     1a
 Ene= 2.23689239076550E+00
 Spin= Alpha
 Occup= 0.000000
  1       0.000000000584
  2      -0.000000008629
  3       0.000000077168
  4       0.000000013034
  5      -0.000000000000
  6      -0.000000000000
  7       0.000000046755
  8       0.000000000000
  9       0.000000000000
 10      -0.000000010468
 11      -0.000000000000
 12       0.000000000000
 13       0.000000001366
 14      -0.000000000000
 15      -0.000000000584
 16       0.000000008629
 17      -0.000000077168
 18       0.000000013034
 19       0.000000000000
 20       0.000000000000
 21       0.000000046755
 22      -0.000000000000
 23      -0.000000000000
 24       0.000000010468
 25      -0.000000000000
 26      -0.000000000000
 27      -0.000000001366
 28      -0.000000000000
 29       0.000000001472
 30       0.000000004234
 31      -0.000000003110
 32      -0.000000012483
 33      -0.000000000000
 34       0.000000001472
 35       0.000000004234
 36      -0.000000003110
 37       0.000000012483
 38      -0.000000000000
 39      -0.000000001472
 40      -0.000000004234
 41      -0.000000003110
 42       0.000000012483
 43       0.000000000000
 44      -0.000000001472
 45      -0.000000004234
 46      -0.000000003110
 47      -0.000000012483
 48       0.000000000000
 49      -0.023912308437
 50       0.353132315074
 51      -3.157886750968
 52      -0.533395130657
 53      -0.000000010520
 54      -0.000000451826
 55      -1.913313633864
 56      -0.000000005254
 57       0.000001278833
 58       0.428373490544
 59      -0.000000252649
 60      -0.000000000035
 61      -0.055901338018
 62       0.000000002411
 63       0.023912307836
 64      -0.353132296834
 65       3.157886727937
 66      -0.533395143864
 67       0.000000003614
 68       0.000000450241
 69      -1.913313636031
 70      -0.000000000605
 71      -0.000001280263
 72      -0.428373468832
 73      -0.000000252845
 74       0.000000001214
 75       0.055901323513
 76      -0.000000004200
 77      -0.060252088562
 78      -0.173268872650
 79       0.127275543239
 80       0.510825957004
 81      -0.000000526591
 82      -0.060252101886
 83      -0.173268884479
 84       0.127275530543
 85      -0.510825971066
 86      -0.000000526879
 87       0.060252089247
 88       0.173268879431
 89       0.127275540045
 90      -0.510825952937
 91       0.000000529193
 92       0.060252094756
 93       0.173268886511
 94       0.127275535061
 95       0.510825963684
 96       0.000000527005
 Sym=     1a
 Ene= 2.23689239455176E+00
 Spin= Alpha
 Occup= 0.000000
  1      -0.023912306781
  2       0.353132301170
  3      -3.157886728991
  4      -0.533395131314
  5      -0.000000002209
  6       0.000000449897
  7      -1.913313618519
  8      -0.000000002738
  9      -0.000001280666
 10       0.428373484177
 11       0.000000251412
 12       0.000000000996
 13      -0.055901328595
 14       0.000000001349
 15       0.023912306855
 16      -0.353132302823
 17       3.157886726605
 18      -0.533395132236
 19       0.000000000883
 20      -0.000000451179
 21      -1.913313619734
 22      -0.000000000525
 23       0.000001279543
 24      -0.428373482006
 25       0.000000250099
 26      -0.000000000890
 27       0.055901328213
 28      -0.000000001039
 29      -0.060252087737
 30      -0.173268875320
 31       0.127275540291
 32       0.510825956106
 33       0.000000527873
 34      -0.060252093791
 35      -0.173268879832
 36       0.127275536213
 37      -0.510825959224
 38       0.000000528527
 39       0.060252093488
 40       0.173268878009
 41       0.127275538545
 42      -0.510825958226
 43      -0.000000526029
 44       0.060252094718
 45       0.173268878878
 46       0.127275539276
 47       0.510825962344
 48      -0.000000526575
 49      -0.000000000584
 50       0.000000008629
 51      -0.000000077168
 52      -0.000000013034
 53       0.000000000000
 54      -0.000000000000
 55      -0.000000046755
 56       0.000000000000
 57       0.000000000000
 58       0.000000010468
 59      -0.000000000000
 60      -0.000000000000
 61      -0.000000001366
 62       0.000000000000
 63       0.000000000584
 64      -0.000000008629
 65       0.000000077168
 66      -0.000000013034
 67      -0.000000000000
 68       0.000000000000
 69      -0.000000046755
 70      -0.000000000000
 71      -0.000000000000
 72      -0.000000010468
 73      -0.000000000000
 74      -0.000000000000
 75       0.000000001366
 76      -0.000000000000
 77      -0.000000001472
 78      -0.000000004234
 79       0.000000003110
 80       0.000000012483
 81      -0.000000000000
 82      -0.000000001472
 83      -0.000000004234
 84       0.000000003110
 85      -0.000000012483
 86      -0.000000000000
 87       0.000000001472
 88       0.000000004234
 89       0.000000003110
 90      -0.000000012483
 91       0.000000000000
 92       0.000000001472
 93       0.000000004234
 94       0.000000003110
 95       0.000000012483
 96       0.000000000000
 Sym=     1a
 Ene= 2.32317872666521E+00
 Spin= Alpha
 Occup= 0.000000
  1      -0.000000000111
  2       0.000000000804
  3      -0.000000007023
  4      -0.000000002549
  5       0.751423656081
  6      -0.000000000696
  7      -0.000000005432
  8       0.541147938924
  9       0.000000000023
 10      -0.000000000550
 11       0.000000001162
 12       0.000000028795
 13       0.000000001053
 14       0.152154110895
 15       0.000000000275
 16      -0.000000000867
 17       0.000000009273
 18      -0.000000000723
 19      -0.751423657098
 20      -0.000000001183
 21      -0.000000005809
 22      -0.541147939778
 23      -0.000000001312
 24      -0.000000002526
 25       0.000000000494
 26      -0.000000026496
 27       0.000000002160
 28       0.152154109195
 29      -0.265666707645
 30      -0.442473363698
 31      -0.474941982093
 32       0.419234249731
 33       0.000000004034
 34       0.265666705057
 35       0.442473361463
 36       0.474941983672
 37       0.419234244681
 38      -0.000000003457
 39       0.265666706738
 40       0.442473362746
 41      -0.474941982800
 42      -0.419234247637
 43      -0.000000004946
 44      -0.265666706936
 45      -0.442473363341
 46       0.474941983454
 47      -0.419234247451
 48       0.000000005249
 49      -0.000000000000
 50       0.000000000000
 51      -0.000000000000
 52      -0.000000000000
 53      -0.000000141691
 54       0.000000000000
 55      -0.000000000000
 56      -0.000000102041
 57       0.000000000000
 58       0.000000000000
 59       0.000000000000
 60       0.000000000000
 61       0.000000000000
 62      -0.000000028691
 63       0.000000000000
 64      -0.000000000000
 65       0.000000000000
 66      -0.000000000000
 67       0.000000141691
 68       0.000000000000
 69      -0.000000000000
 70       0.000000102041
 71       0.000000000000
 72      -0.000000000000
 73      -0.000000000000
 74      -0.000000000000
 75       0.000000000000
 76      -0.000000028691
 77       0.000000050095
 78       0.000000083434
 79       0.000000089557
 80      -0.000000079052
 81      -0.000000000000
 82      -0.000000050095
 83      -0.000000083434
 84      -0.000000089557
 85      -0.000000079052
 86       0.000000000000
 87      -0.000000050095
 88      -0.000000083434
 89       0.000000089557
 90       0.000000079052
 91       0.000000000000
 92       0.000000050095
 93       0.000000083434
 94      -0.000000089557
 95       0.000000079052
 96       0.000000000000
 Sym=     1a
 Ene= 2.32317872718486E+00
 Spin= Alpha
 Occup= 0.000000
  1      -0.000000000000
  2      -0.000000000000
  3       0.000000000000
  4       0.000000000000
  5       0.000000141691
  6      -0.000000000000
  7       0.000000000000
  8       0.000000102041
  9      -0.000000000000
 10      -0.000000000000
 11      -0.000000000000
 12       0.000000000000
 13       0.000000000000
 14       0.000000028691
 15      -0.000000000000
 16       0.000000000000
 17      -0.000000000000
 18       0.000000000000
 19      -0.000000141691
 20       0.000000000000
 21       0.000000000000
 22      -0.000000102041
 23       0.000000000000
 24       0.000000000000
 25       0.000000000000
 26      -0.000000000000
 27       0.000000000000
 28       0.000000028691
 29      -0.000000050095
 30      -0.000000083434
 31      -0.000000089557
 32       0.000000079052
 33       0.000000000000
 34       0.000000050095
 35       0.000000083434
 36       0.000000089557
 37       0.000000079052
 38       0.000000000000
 39       0.000000050095
 40       0.000000083434
 41      -0.000000089557
 42      -0.000000079052
 43      -0.000000000000
 44      -0.000000050095
 45      -0.000000083434
 46       0.000000089557
 47      -0.000000079052
 48       0.000000000000
 49       0.000000000028
 50       0.000000004216
 51      -0.000000014092
 52      -0.000000011625
 53       0.751423652635
 54      -0.000000002102
 55      -0.000000015820
 56       0.541147931361
 57      -0.000000000783
 58      -0.000000002399
 59       0.000000000642
 60      -0.000000023358
 61       0.000000002728
 62       0.152154120750
 63      -0.000000002847
 64      -0.000000000564
 65       0.000000033799
 66       0.000000007706
 67      -0.751423658416
 68      -0.000000002490
 69      -0.000000007102
 70      -0.541147937580
 71      -0.000000002566
 72      -0.000000006316
 73       0.000000001324
 74       0.000000028233
 75       0.000000002675
 76       0.152154103436
 77      -0.265666701646
 78      -0.442473363195
 79      -0.474941981088
 80       0.419234253831
 81      -0.000000007105
 82       0.265666694831
 83       0.442473355790
 84       0.474941984392
 85       0.419234235199
 86       0.000000006507
 87       0.265666718455
 88       0.442473361835
 89      -0.474941974388
 90      -0.419234257916
 91       0.000000001976
 92      -0.265666705463
 93      -0.442473362540
 94       0.474941983715
 95      -0.419234246985
 96      -0.000000004352
 Sym=     1a
 Ene= 2.45679070298684E+00
 Spin= Alpha
 Occup= 0.000000
  1      -0.019366636638
  2       0.058123835386
  3       0.532791202744
  4      -0.341394989900
  5       0.000000000540
  6      -0.000000094112
  7      -0.238658423258
  8       0.000000000531
  9       0.000000102977
 10      -0.219219730447
 11      -0.000000089498
 12       0.000000001424
 13       0.547449443670
 14      -0.000000002215
 15      -0.019366636547
 16       0.058123834993
 17       0.532791206237
 18       0.341394986577
 19       0.000000003396
 20      -0.000000094786
 21       0.238658416507
 22       0.000000001578
 23       0.000000101583
 24      -0.219219730338
 25       0.000000093630
 26      -0.000000000416
 27       0.547449445183
 28       0.000000000005
 29      -0.119177929245
 30      -0.246357389598
 31       0.267405734587
 32       0.422482087222
 33      -0.000000045917
 34      -0.119177929867
 35      -0.246357391331
 36       0.267405733229
 37      -0.422482087642
 38      -0.000000044175
 39      -0.119177930127
 40      -0.246357390294
 41      -0.267405731958
 42       0.422482087062
 43      -0.000000045354
 44      -0.119177926771
 45      -0.246357387362
 46      -0.267405734578
 47      -0.422482082337
 48      -0.000000045728
 49       0.000000045652
 50      -0.000000137013
 51      -0.000001255929
 52       0.000000804758
 53      -0.000000000000
 54      -0.000000000000
 55       0.000000562581
 56      -0.000000000000
 57       0.000000000000
 58       0.000000516758
 59      -0.000000000000
 60       0.000000000000
 61      -0.000001290482
 62       0.000000000000
 63       0.000000045652
 64      -0.000000137013
 65      -0.000001255929
 66      -0.000000804758
 67      -0.000000000000
 68      -0.000000000000
 69      -0.000000562581
 70       0.000000000000
 71       0.000000000000
 72       0.000000516759
 73       0.000000000000
 74      -0.000000000000
 75      -0.000001290482
 76      -0.000000000000
 77       0.000000280934
 78       0.000000580729
 79      -0.000000630346
 80      -0.000000995901
 81      -0.000000000000
 82       0.000000280934
 83       0.000000580729
 84      -0.000000630346
 85       0.000000995901
 86      -0.000000000000
 87       0.000000280934
 88       0.000000580729
 89       0.000000630346
 90      -0.000000995901
 91      -0.000000000000
 92       0.000000280934
 93       0.000000580729
 94       0.000000630346
 95       0.000000995901
 96      -0.000000000000
 Sym=     1a
 Ene= 2.45679070334268E+00
 Spin= Alpha
 Occup= 0.000000
  1      -0.000000045652
  2       0.000000137013
  3       0.000001255929
  4      -0.000000804758
  5      -0.000000000000
  6      -0.000000000000
  7      -0.000000562581
  8      -0.000000000000
  9       0.000000000000
 10      -0.000000516759
 11      -0.000000000000
 12       0.000000000000
 13       0.000001290482
 14      -0.000000000000
 15      -0.000000045652
 16       0.000000137013
 17       0.000001255929
 18       0.000000804758
 19       0.000000000000
 20      -0.000000000000
 21       0.000000562581
 22       0.000000000000
 23       0.000000000000
 24      -0.000000516759
 25       0.000000000000
 26      -0.000000000000
 27       0.000001290482
 28      -0.000000000000
 29      -0.000000280934
 30      -0.000000580729
 31       0.000000630346
 32       0.000000995901
 33      -0.000000000000
 34      -0.000000280934
 35      -0.000000580729
 36       0.000000630346
 37      -0.000000995901
 38      -0.000000000000
 39      -0.000000280934
 40      -0.000000580729
 41      -0.000000630346
 42       0.000000995901
 43      -0.000000000000
 44      -0.000000280934
 45      -0.000000580729
 46      -0.000000630346
 47      -0.000000995901
 48      -0.000000000000
 49      -0.019366634365
 50       0.058123822451
 51       0.532791163465
 52      -0.341394996052
 53       0.000000000146
 54       0.000000094134
 55      -0.238658440030
 56       0.000000000199
 57      -0.000000102137
 58      -0.219219713496
 59       0.000000089698
 60      -0.000000016434
 61       0.547449436429
 62      -0.000000003060
 63      -0.019366636248
 64       0.058123838597
 65       0.532791234421
 66       0.341394967671
 67       0.000000003022
 68       0.000000094342
 69       0.238658397263
 70       0.000000001234
 71      -0.000000102877
 72      -0.219219733890
 73      -0.000000092417
 74       0.000000018171
 75       0.547449456636
 76      -0.000000000056
 77      -0.119177922240
 78      -0.246357385843
 79       0.267405738907
 80       0.422482082711
 81       0.000000052229
 82      -0.119177923964
 83      -0.246357390161
 84       0.267405737209
 85      -0.422482084818
 86       0.000000035817
 87      -0.119177933915
 88      -0.246357391626
 89      -0.267405735211
 90       0.422482088002
 91       0.000000037299
 92      -0.119177924587
 93      -0.246357385105
 94      -0.267405741145
 95      -0.422482081285
 96       0.000000053618
 Sym=     1a
 Ene= 2.47134099308094E+00
 Spin= Alpha
 Occup= 0.000000
  1      -0.000000000000
  2       0.000000000000
  3      -0.000000000000
  4       0.000000000000
  5       0.000000000000
  6       0.000000000000
  7       0.000000000000
  8      -0.000000000000
  9       0.000000000000
 10       0.000000000000
 11       0.000000000000
 12       0.000000023767
 13      -0.000000000000
 14      -0.000000000000
 15       0.000000000000
 16      -0.000000000000
 17      -0.000000000000
 18      -0.000000000000
 19      -0.000000000000
 20      -0.000000000000
 21      -0.000000000000
 22      -0.000000000000
 23      -0.000000000000
 24       0.000000000000
 25       0.000000000000
 26      -0.000000023767
 27      -0.000000000000
 28      -0.000000000000
 29      -0.000000000000
 30       0.000000000000
 31      -0.000000000000
 32      -0.000000000000
 33      -0.000000012025
 34       0.000000000000
 35       0.000000000000
 36      -0.000000000000
 37       0.000000000000
 38       0.000000012025
 39       0.000000000000
 40       0.000000000000
 41       0.000000000000
 42      -0.000000000000
 43       0.000000012025
 44      -0.000000000000
 45       0.000000000000
 46       0.000000000000
 47       0.000000000000
 48      -0.000000012025
 49      -0.000000000295
 50      -0.000000000197
 51       0.000000014498
 52      -0.000000006220
 53      -0.000000317206
 54       0.000000001375
 55      -0.000000003091
 56      -0.000000093293
 57      -0.000000000265
 58      -0.000000005385
 59      -0.000000005027
 60       0.771582360794
 61       0.000000012805
 62       0.000000027443
 63       0.000000000990
 64      -0.000000001321
 65       0.000000002613
 66       0.000000004093
 67       0.000000321974
 68       0.000000003359
 69       0.000000004338
 70       0.000000095316
 71       0.000000003511
 72      -0.000000005245
 73      -0.000000005389
 74      -0.771582338737
 75       0.000000012792
 76       0.000000029792
 77       0.000000225353
 78       0.000000059515
 79      -0.000000009570
 80       0.000000055212
 81      -0.390380903470
 82      -0.000000229503
 83      -0.000000069950
 84       0.000000022454
 85       0.000000038337
 86       0.390380902953
 87      -0.000000228019
 88      -0.000000068008
 89      -0.000000021072
 90      -0.000000038876
 91       0.390380889237
 92       0.000000221178
 93       0.000000059517
 94       0.000000007860
 95      -0.000000054909
 96      -0.390380886260
 Sym=     1a
 Ene= 2.47134099497379E+00
 Spin= Alpha
 Occup= 0.000000
  1       0.000000000109
  2      -0.000000000226
  3      -0.000000003057
  4      -0.000000001090
  5      -0.000000316147
  6       0.000000000031
  7      -0.000000002563
  8      -0.000000090311
  9       0.000000000105
 10       0.000000000435
 11       0.000000000949
 12      -0.771582350269
 13       0.000000000546
 14       0.000000029537
 15      -0.000000000160
 16       0.000000000222
 17       0.000000004367
 18      -0.000000000129
 19       0.000000315155
 20      -0.000000000154
 21      -0.000000002006
 22       0.000000089604
 23      -0.000000000180
 24      -0.000000000900
 25       0.000000000720
 26       0.771582348278
 27       0.000000000939
 28       0.000000028720
 29       0.000000228176
 30       0.000000063275
 31      -0.000000015869
 32       0.000000047598
 33       0.390380897030
 34      -0.000000228211
 35      -0.000000064216
 36       0.000000017106
 37       0.000000045814
 38      -0.390380896474
 39      -0.000000227601
 40      -0.000000063499
 41      -0.000000017145
 42      -0.000000046966
 43      -0.390380895469
 44       0.000000227916
 45       0.000000063187
 46       0.000000017017
 47      -0.000000047020
 48       0.390380895873
 49      -0.000000000000
 50       0.000000000000
 51       0.000000000000
 52      -0.000000000000
 53      -0.000000000000
 54       0.000000000000
 55      -0.000000000000
 56      -0.000000000000
 57      -0.000000000000
 58      -0.000000000000
 59      -0.000000000000
 60       0.000000023767
 61       0.000000000000
 62      -0.000000000000
 63       0.000000000000
 64       0.000000000000
 65       0.000000000000
 66       0.000000000000
 67       0.000000000000
 68       0.000000000000
 69       0.000000000000
 70       0.000000000000
 71       0.000000000000
 72      -0.000000000000
 73      -0.000000000000
 74      -0.000000023767
 75       0.000000000000
 76      -0.000000000000
 77       0.000000000000
 78      -0.000000000000
 79       0.000000000000
 80       0.000000000000
 81      -0.000000012025
 82      -0.000000000000
 83      -0.000000000000
 84       0.000000000000
 85      -0.000000000000
 86       0.000000012025
 87      -0.000000000000
 88      -0.000000000000
 89      -0.000000000000
 90       0.000000000000
 91       0.000000012025
 92       0.000000000000
 93      -0.000000000000
 94      -0.000000000000
 95      -0.000000000000
 96      -0.000000012025
 Sym=     1a
 Ene= 2.55022969489472E+00
 Spin= Alpha
 Occup= 0.000000
  1       0.000000000000
  2       0.000000000000
  3      -0.000000000001
  4      -0.000000000000
  5       0.000000000000
  6      -0.000000029347
  7      -0.000000000000
  8       0.000000000000
  9      -0.000000015374
 10       0.000000000000
 11      -0.000000278191
 12      -0.000000000000
 13      -0.000000000000
 14      -0.000000000000
 15      -0.000000000000
 16      -0.000000000000
 17       0.000000000001
 18      -0.000000000000
 19       0.000000000000
 20       0.000000029347
 21      -0.000000000000
 22      -0.000000000000
 23       0.000000015374
 24      -0.000000000000
 25      -0.000000278191
 26       0.000000000000
 27       0.000000000000
 28       0.000000000000
 29      -0.000000000000
 30      -0.000000000000
 31       0.000000000000
 32       0.000000000000
 33      -0.000000066116
 34      -0.000000000000
 35      -0.000000000000
 36       0.000000000000
 37      -0.000000000000
 38      -0.000000066116
 39       0.000000000000
 40       0.000000000000
 41       0.000000000000
 42      -0.000000000000
 43       0.000000066116
 44       0.000000000000
 45       0.000000000000
 46       0.000000000000
 47       0.000000000000
 48       0.000000066116
 49       0.000000011726
 50       0.000000040061
 51      -0.000002466596
 52      -0.000000740049
 53      -0.000000000248
 54       0.095736799239
 55      -0.000001533006
 56       0.000000000187
 57       0.050151274791
 58       0.000000187018
 59       0.907511645660
 60       0.000000004972
 61      -0.000000266683
 62      -0.000000000299
 63      -0.000000012562
 64      -0.000000040234
 65       0.000002470865
 66      -0.000000736249
 67       0.000000000322
 68      -0.095736807050
 69      -0.000001530034
 70      -0.000000000336
 71      -0.050151278837
 72      -0.000000185231
 73       0.907511636852
 74      -0.000000003108
 75       0.000000269628
 76       0.000000000195
 77      -0.000000173089
 78      -0.000000137098
 79       0.000000065811
 80       0.000000200407
 81       0.215684072116
 82      -0.000000173555
 83      -0.000000137841
 84       0.000000064805
 85      -0.000000200896
 86       0.215684077852
 87       0.000000175090
 88       0.000000136040
 89       0.000000064233
 90      -0.000000199205
 91      -0.215684070984
 92       0.000000178240
 93       0.000000137579
 94       0.000000063068
 95       0.000000201231
 96      -0.215684075940
 Sym=     1a
 Ene= 2.55022969715511E+00
 Spin= Alpha
 Occup= 0.000000
  1       0.000000010925
  2       0.000000043168
  3      -0.000002456584
  4      -0.000000739556
  5       0.000000000021
  6      -0.095736802774
  7      -0.000001528982
  8       0.000000000878
  9      -0.050151275228
 10       0.000000183515
 11      -0.907511641619
 12      -0.000000000727
 13      -0.000000267931
 14       0.000000000799
 15      -0.000000011614
 16      -0.000000039991
 17       0.000002461920
 18      -0.000000735941
 19      -0.000000001170
 20       0.095736804353
 21      -0.000001526175
 22      -0.000000001290
 23       0.050151276189
 24      -0.000000185494
 25      -0.907511641196
 26       0.000000000483
 27       0.000000268721
 28      -0.000000000189
 29      -0.000000175368
 30      -0.000000138464
 31       0.000000063344
 32       0.000000201565
 33      -0.215684073150
 34      -0.000000175586
 35      -0.000000137426
 36       0.000000064078
 37      -0.000000201805
 38      -0.215684073822
 39       0.000000173923
 40       0.000000136511
 41       0.000000063035
 42      -0.000000198602
 43       0.215684073434
 44       0.000000172877
 45       0.000000135321
 46       0.000000064175
 47       0.000000197528
 48       0.215684074502
 49      -0.000000000000
 50      -0.000000000000
 51       0.000000000001
 52       0.000000000000
 53       0.000000000000
 54      -0.000000029347
 55       0.000000000000
 56      -0.000000000000
 57      -0.000000015374
 58      -0.000000000000
 59      -0.000000278191
 60       0.000000000000
 61       0.000000000000
 62      -0.000000000000
 63       0.000000000000
 64       0.000000000000
 65      -0.000000000001
 66       0.000000000000
 67       0.000000000000
 68       0.000000029347
 69       0.000000000000
 70       0.000000000000
 71       0.000000015374
 72       0.000000000000
 73      -0.000000278191
 74      -0.000000000000
 75      -0.000000000000
 76       0.000000000000
 77       0.000000000000
 78       0.000000000000
 79      -0.000000000000
 80      -0.000000000000
 81      -0.000000066116
 82       0.000000000000
 83       0.000000000000
 84      -0.000000000000
 85       0.000000000000
 86      -0.000000066116
 87      -0.000000000000
 88      -0.000000000000
 89      -0.000000000000
 90       0.000000000000
 91       0.000000066116
 92      -0.000000000000
 93      -0.000000000000
 94      -0.000000000000
 95      -0.000000000000
 96       0.000000066116
 Sym=     1a
 Ene= 2.78987107429657E+00
 Spin= Alpha
 Occup= 0.000000
  1       0.146826056836
  2      -0.968876816064
  3      -0.445185612746
  4       0.501932072792
  5      -0.000000005410
  6       0.000000101463
  7       0.183563624471
  8      -0.000000003453
  9      -0.000000090860
 10       0.513865184930
 11       0.000000008302
 12      -0.000000000059
 13       0.520382875824
 14       0.000000004270
 15       0.146826059929
 16      -0.968876830427
 17      -0.445185634275
 18      -0.501932068986
 19      -0.000000005220
 20       0.000000101505
 21      -0.183563619496
 22      -0.000000001436
 23      -0.000000091319
 24       0.513865195543
 25      -0.000000010907
 26       0.000000000030
 27       0.520382868363
 28      -0.000000003547
 29       0.632956561440
 30       0.210045257942
 31       0.484652121013
 32      -0.585760871234
 33       0.000000045338
 34       0.632956555400
 35       0.210045254819
 36       0.484652117698
 37       0.585760864888
 38       0.000000045024
 39       0.632956565663
 40       0.210045260781
 41      -0.484652122371
 42      -0.585760877018
 43       0.000000045878
 44       0.632956558074
 45       0.210045258045
 46      -0.484652119490
 47       0.585760868819
 48       0.000000044715
 49       0.000000054350
 50      -0.000000358643
 51      -0.000000164791
 52       0.000000185797
 53       0.000000000000
 54      -0.000000000000
 55       0.000000067949
 56       0.000000000000
 57       0.000000000000
 58       0.000000190214
 59      -0.000000000000
 60       0.000000000000
 61       0.000000192627
 62      -0.000000000000
 63       0.000000054350
 64      -0.000000358643
 65      -0.000000164791
 66      -0.000000185797
 67       0.000000000000
 68      -0.000000000000
 69      -0.000000067949
 70       0.000000000000
 71       0.000000000000
 72       0.000000190214
 73       0.000000000000
 74       0.000000000000
 75       0.000000192627
 76       0.000000000000
 77       0.000000234297
 78       0.000000077751
 79       0.000000179401
 80      -0.000000216827
 81      -0.000000000000
 82       0.000000234297
 83       0.000000077751
 84       0.000000179401
 85       0.000000216827
 86      -0.000000000000
 87       0.000000234297
 88       0.000000077751
 89      -0.000000179401
 90      -0.000000216827
 91      -0.000000000000
 92       0.000000234297
 93       0.000000077751
 94      -0.000000179401
 95       0.000000216827
 96      -0.000000000000
 Sym=     1a
 Ene= 2.78987107754168E+00
 Spin= Alpha
 Occup= 0.000000
  1       0.000000054350
  2      -0.000000358643
  3      -0.000000164791
  4       0.000000185797
  5      -0.000000000000
  6       0.000000000000
  7       0.000000067949
  8      -0.000000000000
  9      -0.000000000000
 10       0.000000190214
 11       0.000000000000
 12      -0.000000000000
 13       0.000000192627
 14       0.000000000000
 15       0.000000054350
 16      -0.000000358643
 17      -0.000000164791
 18      -0.000000185797
 19      -0.000000000000
 20       0.000000000000
 21      -0.000000067949
 22      -0.000000000000
 23      -0.000000000000
 24       0.000000190214
 25      -0.000000000000
 26       0.000000000000
 27       0.000000192627
 28      -0.000000000000
 29       0.000000234297
 30       0.000000077751
 31       0.000000179401
 32      -0.000000216827
 33       0.000000000000
 34       0.000000234297
 35       0.000000077751
 36       0.000000179401
 37       0.000000216827
 38       0.000000000000
 39       0.000000234297
 40       0.000000077751
 41      -0.000000179401
 42      -0.000000216827
 43       0.000000000000
 44       0.000000234297
 45       0.000000077751
 46      -0.000000179401
 47       0.000000216827
 48       0.000000000000
 49      -0.146826051328
 50       0.968876780510
 51       0.445185540565
 52      -0.501932075387
 53       0.000000019543
 54       0.000000101990
 55      -0.183563642505
 56       0.000000012965
 57      -0.000000091015
 58      -0.513865151693
 59       0.000000010527
 60       0.000000001382
 61      -0.520382885067
 62      -0.000000020350
 63      -0.146826063080
 64       0.968876866546
 65       0.445185699697
 66       0.501932052895
 67       0.000000018299
 68       0.000000101685
 69       0.183563595465
 70       0.000000007310
 71      -0.000000091542
 72      -0.513865222952
 73      -0.000000008018
 74       0.000000000224
 75      -0.520382853287
 76       0.000000015136
 77      -0.632956557988
 78      -0.210045254012
 79      -0.484652119963
 80       0.585760865074
 81       0.000000044578
 82      -0.632956524381
 83      -0.210045239078
 84      -0.484652103099
 85      -0.585760837633
 86       0.000000046301
 87      -0.632956609331
 88      -0.210045279986
 89       0.484652131667
 90       0.585760916134
 91       0.000000047889
 92      -0.632956572112
 93      -0.210045263002
 94       0.484652115596
 95      -0.585760883462
 96       0.000000045388
 Sym=     1a
 Ene= 2.86687889736868E+00
 Spin= Alpha
 Occup= 0.000000
  1      -0.000000000000
  2       0.000000000000
  3       0.000000000000
  4      -0.000000000000
  5       0.000000000111
  6       0.000000000000
  7      -0.000000000000
  8       0.000000000059
  9       0.000000000000
 10      -0.000000000000
 11       0.000000000000
 12      -0.000000000000
 13      -0.000000000000
 14      -0.000000000094
 15      -0.000000000000
 16       0.000000000000
 17       0.000000000000
 18       0.000000000000
 19       0.000000000111
 20      -0.000000000000
 21      -0.000000000000
 22       0.000000000059
 23      -0.000000000000
 24      -0.000000000000
 25       0.000000000000
 26       0.000000000000
 27      -0.000000000000
 28       0.000000000094
 29      -0.000000000084
 30      -0.000000000042
 31      -0.000000000051
 32       0.000000000078
 33       0.000000000000
 34       0.000000000084
 35       0.000000000042
 36       0.000000000051
 37       0.000000000078
 38      -0.000000000000
 39      -0.000000000084
 40      -0.000000000042
 41       0.000000000051
 42       0.000000000078
 43      -0.000000000000
 44       0.000000000084
 45       0.000000000042
 46      -0.000000000051
 47       0.000000000078
 48      -0.000000000000
 49      -0.000000006965
 50       0.000000040130
 51       0.000000062146
 52       0.000000033321
 53       0.920363614535
 54      -0.000000002230
 55       0.000000017832
 56       0.487693053495
 57      -0.000000000804
 58      -0.000000033170
 59      -0.000000000554
 60      -0.000000099866
 61       0.000000056466
 62      -0.779132284659
 63       0.000000010722
 64      -0.000000081658
 65      -0.000000071581
 66       0.000000024425
 67       0.920363615214
 68      -0.000000002292
 69       0.000000017703
 70       0.487693065065
 71      -0.000000002563
 72       0.000000054799
 73      -0.000000000371
 74      -0.000000098745
 75      -0.000000033939
 76       0.779132310916
 77      -0.696122279006
 78      -0.343807258523
 79      -0.420686455641
 80       0.642105436959
 81       0.000000032370
 82       0.696122271730
 83       0.343807242351
 84       0.420686478101
 85       0.642105411199
 86      -0.000000032717
 87      -0.696122241681
 88      -0.343807234233
 89       0.420686458545
 90       0.642105385741
 91       0.000000031078
 92       0.696122323172
 93       0.343807269784
 94      -0.420686473547
 95       0.642105471883
 96      -0.000000032192
 Sym=     1a
 Ene= 2.86687889903152E+00
 Spin= Alpha
 Occup= 0.000000
  1      -0.000000005189
  2       0.000000029180
  3       0.000000029983
  4       0.000000005361
  5      -0.920363613294
  6       0.000000000682
  7       0.000000004660
  8      -0.487693057842
  9       0.000000000093
 10      -0.000000020127
 11       0.000000000275
 12      -0.000000099506
 13       0.000000011974
 14       0.779132297009
 15       0.000000003224
 16      -0.000000018532
 17      -0.000000023470
 18       0.000000011438
 19      -0.920363613241
 20       0.000000000806
 21       0.000000007624
 22      -0.487693059312
 23       0.000000001008
 24       0.000000014884
 25       0.000000000611
 26      -0.000000100086
 27      -0.000000016282
 28      -0.779132298790
 29       0.696122269655
 30       0.343807245288
 31       0.420686462652
 32      -0.642105413413
 33       0.000000032332
 34      -0.696122291237
 35      -0.343807257008
 36      -0.420686468339
 37      -0.642105440256
 38      -0.000000032345
 39       0.696122285551
 40       0.343807254511
 41      -0.420686463998
 42      -0.642105433580
 43       0.000000032413
 44      -0.696122277404
 45      -0.343807247696
 46       0.420686465202
 47      -0.642105421816
 48      -0.000000033230
 49       0.000000000000
 50      -0.000000000000
 51      -0.000000000000
 52      -0.000000000000
 53       0.000000000111
 54      -0.000000000000
 55      -0.000000000000
 56       0.000000000059
 57      -0.000000000000
 58       0.000000000000
 59       0.000000000000
 60       0.000000000000
 61      -0.000000000000
 62      -0.000000000094
 63      -0.000000000000
 64       0.000000000000
 65       0.000000000000
 66      -0.000000000000
 67       0.000000000111
 68      -0.000000000000
 69      -0.000000000000
 70       0.000000000059
 71      -0.000000000000
 72      -0.000000000000
 73       0.000000000000
 74      -0.000000000000
 75       0.000000000000
 76       0.000000000094
 77      -0.000000000084
 78      -0.000000000042
 79      -0.000000000051
 80       0.000000000078
 81       0.000000000000
 82       0.000000000084
 83       0.000000000042
 84       0.000000000051
 85       0.000000000078
 86       0.000000000000
 87      -0.000000000084
 88      -0.000000000042
 89       0.000000000051
 90       0.000000000078
 91       0.000000000000
 92       0.000000000084
 93       0.000000000042
 94      -0.000000000051
 95       0.000000000078
 96      -0.000000000000
 Sym=     1a
 Ene= 2.88819839232818E+00
 Spin= Alpha
 Occup= 0.000000
  1      -0.185534548006
  2       1.052247607404
  3       1.076688018736
  4       0.387618535445
  5       0.000000020034
  6      -0.000000197254
  7       0.178198032129
  8       0.000000010343
  9       0.000000233628
 10      -0.746780054877
 11      -0.000000124253
 12      -0.000000000002
 13       0.688330621766
 14      -0.000000017171
 15       0.185534545641
 16      -1.052247594472
 17      -1.076688014107
 18       0.387618542340
 19       0.000000021786
 20       0.000000196680
 21       0.178198034217
 22       0.000000010684
 23      -0.000000234201
 24       0.746780048510
 25      -0.000000124197
 26       0.000000000083
 27      -0.688330628602
 28       0.000000016951
 29      -0.322228632029
 30      -0.215200396577
 31      -0.013484789064
 32       0.437166264806
 33      -0.000000072834
 34      -0.322228600580
 35      -0.215200381029
 36      -0.013484770510
 37      -0.437166235857
 38      -0.000000073058
 39       0.322228595750
 40       0.215200380191
 41      -0.013484765121
 42      -0.437166228795
 43       0.000000072437
 44       0.322228623959
 45       0.215200393414
 46      -0.013484782333
 47       0.437166257996
 48       0.000000073535
 49      -0.000000033340
 50       0.000000189087
 51       0.000000193479
 52       0.000000069654
 53      -0.000000000000
 54       0.000000000000
 55       0.000000032022
 56      -0.000000000000
 57      -0.000000000000
 58      -0.000000134195
 59       0.000000000000
 60      -0.000000000000
 61       0.000000123692
 62       0.000000000000
 63       0.000000033340
 64      -0.000000189087
 65      -0.000000193479
 66       0.000000069654
 67      -0.000000000000
 68      -0.000000000000
 69       0.000000032022
 70      -0.000000000000
 71       0.000000000000
 72       0.000000134195
 73       0.000000000000
 74       0.000000000000
 75      -0.000000123692
 76      -0.000000000000
 77      -0.000000057904
 78      -0.000000038671
 79      -0.000000002423
 80       0.000000078558
 81       0.000000000000
 82      -0.000000057904
 83      -0.000000038671
 84      -0.000000002423
 85      -0.000000078558
 86       0.000000000000
 87       0.000000057904
 88       0.000000038671
 89      -0.000000002423
 90      -0.000000078558
 91      -0.000000000000
 92       0.000000057904
 93       0.000000038671
 94      -0.000000002423
 95       0.000000078558
 96      -0.000000000000
 Sym=     1a
 Ene= 2.88819839289127E+00
 Spin= Alpha
 Occup= 0.000000
  1      -0.000000033340
  2       0.000000189087
  3       0.000000193479
  4       0.000000069654
  5       0.000000000000
  6      -0.000000000000
  7       0.000000032022
  8       0.000000000000
  9       0.000000000000
 10      -0.000000134195
 11      -0.000000000000
 12       0.000000000000
 13       0.000000123692
 14      -0.000000000000
 15       0.000000033340
 16      -0.000000189087
 17      -0.000000193479
 18       0.000000069654
 19       0.000000000000
 20       0.000000000000
 21       0.000000032022
 22       0.000000000000
 23      -0.000000000000
 24       0.000000134195
 25      -0.000000000000
 26       0.000000000000
 27      -0.000000123692
 28       0.000000000000
 29      -0.000000057904
 30      -0.000000038671
 31      -0.000000002423
 32       0.000000078558
 33      -0.000000000000
 34      -0.000000057904
 35      -0.000000038671
 36      -0.000000002423
 37      -0.000000078558
 38      -0.000000000000
 39       0.000000057904
 40       0.000000038671
 41      -0.000000002423
 42      -0.000000078558
 43       0.000000000000
 44       0.000000057904
 45       0.000000038671
 46      -0.000000002423
 47       0.000000078558
 48       0.000000000000
 49       0.185534554352
 50      -1.052247643670
 51      -1.076688032714
 52      -0.387618514126
 53       0.000000058699
 54      -0.000000196619
 55      -0.178198019953
 56       0.000000027968
 57       0.000000234243
 58       0.746780075954
 59      -0.000000124574
 60       0.000000000098
 61      -0.688330608870
 62      -0.000000044718
 63      -0.185534542951
 64       1.052247564758
 65       1.076687992255
 66      -0.387618554468
 67       0.000000057901
 68       0.000000197440
 69      -0.178198033902
 70       0.000000033720
 71      -0.000000233239
 72      -0.746780030692
 73      -0.000000125020
 74      -0.000000000687
 75       0.688330639211
 76       0.000000052927
 77       0.322228599953
 78       0.215200377993
 79       0.013484767095
 80      -0.437166235365
 81      -0.000000073422
 82       0.322228680971
 83       0.215200419954
 84       0.013484820285
 85       0.437166315210
 86      -0.000000073070
 87      -0.322228626954
 88      -0.215200399689
 89       0.013484788213
 90       0.437166256635
 91       0.000000071836
 92      -0.322228538452
 93      -0.215200356612
 94       0.013484734713
 95      -0.437166178041
 96       0.000000073455
 Sym=     1a
 Ene= 3.15901129279998E+00
 Spin= Alpha
 Occup= 0.000000
  1      -0.000000000000
  2       0.000000000001
  3       0.000000000005
  4      -0.000000000002
  5       0.000000000000
  6      -0.000000000000
  7       0.000000000001
  8       0.000000000000
  9       0.000000000000
 10      -0.000000000002
 11      -0.000000000000
 12      -0.000000000000
 13      -0.000000000003
 14      -0.000000000000
 15       0.000000000000
 16      -0.000000000001
 17      -0.000000000005
 18      -0.000000000002
 19       0.000000000000
 20      -0.000000000000
 21       0.000000000001
 22      -0.000000000000
 23       0.000000000000
 24       0.000000000002
 25      -0.000000000000
 26      -0.000000000000
 27       0.000000000003
 28       0.000000000000
 29      -0.000000000002
 30      -0.000000000001
 31      -0.000000000002
 32       0.000000000001
 33      -0.000000000000
 34      -0.000000000002
 35      -0.000000000001
 36      -0.000000000002
 37      -0.000000000001
 38      -0.000000000000
 39       0.000000000002
 40       0.000000000001
 41      -0.000000000002
 42      -0.000000000001
 43       0.000000000000
 44       0.000000000002
 45       0.000000000001
 46      -0.000000000002
 47       0.000000000001
 48       0.000000000000
 49       0.081761475456
 50      -0.442179515077
 51      -1.498665902198
 52       0.703230732382
 53      -0.000000000927
 54      -0.000000139754
 55      -0.203330171250
 56       0.000000000139
 57       0.000000419149
 58       0.463051270067
 59       0.000000173207
 60       0.000000000046
 61       0.907624957899
 62      -0.000000000158
 63      -0.081761473758
 64       0.442179493594
 65       1.498665899575
 66       0.703230732443
 67      -0.000000001798
 68       0.000000141087
 69      -0.203330167439
 70      -0.000000001908
 71      -0.000000417893
 72      -0.463051259765
 73       0.000000172694
 74      -0.000000000523
 75      -0.907624940698
 76      -0.000000004117
 77       0.636840267366
 78       0.274779962107
 79       0.525251995797
 80      -0.423062134695
 81      -0.000000058384
 82       0.636840265332
 83       0.274779960568
 84       0.525251994754
 85       0.423062132688
 86      -0.000000058259
 87      -0.636840237246
 88      -0.274779955113
 89       0.525251983479
 90       0.423062115157
 91       0.000000056974
 92      -0.636840249904
 93      -0.274779959827
 94       0.525251984729
 95      -0.423062123824
 96       0.000000058049
 Sym=     1a
 Ene= 3.15901129635451E+00
 Spin= Alpha
 Occup= 0.000000
  1       0.081761473347
  2      -0.442179504126
  3      -1.498665903390
  4       0.703230730835
  5      -0.000000001477
  6       0.000000139592
  7      -0.203330173152
  8      -0.000000000899
  9      -0.000000418613
 10       0.463051264877
 11      -0.000000173674
 12       0.000000000020
 13       0.907624949591
 14       0.000000001038
 15      -0.081761472867
 16       0.442179502822
 17       1.498665900871
 18       0.703230729559
 19      -0.000000000192
 20      -0.000000141234
 21      -0.203330174005
 22      -0.000000000048
 23       0.000000417584
 24      -0.463051264332
 25      -0.000000173960
 26       0.000000000048
 27      -0.907624948124
 28      -0.000000000450
 29       0.636840259137
 30       0.274779960248
 31       0.525251989466
 32      -0.423062130325
 33       0.000000058115
 34       0.636840258190
 35       0.274779959641
 36       0.525251988562
 37       0.423062128674
 38       0.000000058184
 39      -0.636840256601
 40      -0.274779958372
 41       0.525251987558
 42       0.423062128210
 43      -0.000000058344
 44      -0.636840260760
 45      -0.274779960048
 46       0.525251988109
 47      -0.423062130626
 48      -0.000000058832
 49       0.000000000000
 50      -0.000000000001
 51      -0.000000000005
 52       0.000000000002
 53       0.000000000000
 54       0.000000000000
 55      -0.000000000001
 56       0.000000000000
 57       0.000000000000
 58       0.000000000002
 59       0.000000000000
 60      -0.000000000000
 61       0.000000000003
 62      -0.000000000000
 63      -0.000000000000
 64       0.000000000001
 65       0.000000000005
 66       0.000000000002
 67       0.000000000000
 68      -0.000000000000
 69      -0.000000000001
 70      -0.000000000000
 71      -0.000000000000
 72      -0.000000000002
 73       0.000000000000
 74       0.000000000000
 75      -0.000000000003
 76      -0.000000000000
 77       0.000000000002
 78       0.000000000001
 79       0.000000000002
 80      -0.000000000001
 81       0.000000000000
 82       0.000000000002
 83       0.000000000001
 84       0.000000000002
 85       0.000000000001
 86       0.000000000000
 87      -0.000000000002
 88      -0.000000000001
 89       0.000000000002
 90       0.000000000001
 91      -0.000000000000
 92      -0.000000000002
 93      -0.000000000001
 94       0.000000000002
 95      -0.000000000001
 96      -0.000000000000
 Sym=     1a
 Ene= 3.40367575891039E+00
 Spin= Alpha
 Occup= 0.000000
  1      -0.000000000126
  2       0.000000000278
  3       0.000000003432
  4      -0.000000000248
  5      -0.524929689850
  6       0.000000000255
  7       0.000000000947
  8      -0.750665203518
  9      -0.000000000038
 10      -0.000000000382
 11       0.000000000082
 12       0.000000021405
 13       0.000000000125
 14       1.235579440215
 15       0.000000000117
 16      -0.000000000080
 17      -0.000000001904
 18       0.000000000256
 19       0.524929688996
 20       0.000000000350
 21       0.000000002009
 22       0.750665203125
 23       0.000000000508
 24       0.000000000339
 25       0.000000000120
 26      -0.000000021567
 27      -0.000000000039
 28       1.235579439108
 29       0.736199843729
 30       0.269447216960
 31       0.161031388192
 32      -0.573652562509
 33      -0.000000028127
 34      -0.736199843189
 35      -0.269447217232
 36      -0.161031388406
 37      -0.573652562678
 38       0.000000028326
 39      -0.736199842250
 40      -0.269447217029
 41       0.161031387616
 42       0.573652561949
 43       0.000000028268
 44       0.736199841211
 45       0.269447216538
 46      -0.161031388570
 47       0.573652560798
 48      -0.000000028711
 49      -0.000000000000
 50      -0.000000000000
 51       0.000000000000
 52      -0.000000000000
 53      -0.000000000001
 54      -0.000000000000
 55       0.000000000000
 56      -0.000000000002
 57      -0.000000000000
 58       0.000000000000
 59      -0.000000000000
 60      -0.000000000000
 61      -0.000000000000
 62       0.000000000003
 63       0.000000000000
 64       0.000000000000
 65      -0.000000000000
 66      -0.000000000000
 67       0.000000000001
 68      -0.000000000000
 69       0.000000000000
 70       0.000000000002
 71      -0.000000000000
 72      -0.000000000000
 73       0.000000000000
 74       0.000000000000
 75       0.000000000000
 76       0.000000000003
 77       0.000000000002
 78       0.000000000001
 79       0.000000000000
 80      -0.000000000002
 81       0.000000000000
 82      -0.000000000002
 83      -0.000000000001
 84      -0.000000000000
 85      -0.000000000002
 86      -0.000000000000
 87      -0.000000000002
 88      -0.000000000001
 89       0.000000000000
 90       0.000000000002
 91      -0.000000000000
 92       0.000000000002
 93       0.000000000001
 94      -0.000000000000
 95       0.000000000002
 96       0.000000000000
 Sym=     1a
 Ene= 3.40367575894501E+00
 Spin= Alpha
 Occup= 0.000000
  1       0.000000000000
  2      -0.000000000000
  3      -0.000000000000
  4       0.000000000000
  5       0.000000000001
  6       0.000000000000
  7      -0.000000000000
  8       0.000000000002
  9       0.000000000000
 10       0.000000000000
 11       0.000000000000
 12      -0.000000000000
 13       0.000000000000
 14      -0.000000000003
 15       0.000000000000
 16      -0.000000000000
 17       0.000000000000
 18       0.000000000000
 19      -0.000000000001
 20      -0.000000000000
 21      -0.000000000000
 22      -0.000000000002
 23       0.000000000000
 24      -0.000000000000
 25       0.000000000000
 26       0.000000000000
 27      -0.000000000000
 28      -0.000000000003
 29      -0.000000000002
 30      -0.000000000001
 31      -0.000000000000
 32       0.000000000002
 33       0.000000000000
 34       0.000000000002
 35       0.000000000001
 36       0.000000000000
 37       0.000000000002
 38      -0.000000000000
 39       0.000000000002
 40       0.000000000001
 41      -0.000000000000
 42      -0.000000000002
 43      -0.000000000000
 44      -0.000000000002
 45      -0.000000000001
 46       0.000000000000
 47      -0.000000000002
 48      -0.000000000000
 49      -0.000000001065
 50       0.000000004353
 51      -0.000000006964
 52       0.000000004254
 53      -0.524929700060
 54       0.000000001716
 55      -0.000000003719
 56      -0.750665207128
 57       0.000000000889
 58      -0.000000001763
 59      -0.000000000017
 60      -0.000000021374
 61       0.000000003091
 62       1.235579447645
 63       0.000000002901
 64      -0.000000004320
 65       0.000000001274
 66      -0.000000004328
 67       0.524929681811
 68       0.000000001804
 69      -0.000000009334
 70       0.750665198865
 71       0.000000001754
 72       0.000000001331
 73      -0.000000000096
 74       0.000000020970
 75      -0.000000004891
 76       1.235579430747
 77       0.736199848146
 78       0.269447218283
 79       0.161031392247
 80      -0.573652567226
 81       0.000000027997
 82      -0.736199850063
 83      -0.269447219696
 84      -0.161031391272
 85      -0.573652569725
 86      -0.000000028219
 87      -0.736199843092
 88      -0.269447213847
 89       0.161031384451
 90       0.573652559901
 91      -0.000000027560
 92       0.736199830199
 93       0.269447213979
 94      -0.161031383521
 95       0.573652555908
 96       0.000000028466
